! TOUCHSTONE file generated by CST MICROWAVE STUDIO
! Date and time: Wed Oct  7 17:58:07 2026
! Project name: antenna.cst
! Parameters = {substrate_tand=0.02; substrate_er=4.4; gap_mm=5; feed_start_x=24.3; series_c_pf=1.8; omit_soldermask=1; coax_pigtail=1; feed_contact_inside=1; explicit_via_pads=1; feed_x=24.85; copper_edge_clearance=0.3; housing_air=0.25; housing_wall=1; shield_extension=0; via_plating_t=0.025; via_drill_r=0.15; via_outer_r=0.35; radiator_y=2; feed_y=1.1; feed_w=1.5; feed_offset=6; short_offset=9; ground_l=28; tail_l=23.6; segment_l=23.6; meander_count=1; trace_gap=0.5; trace_w=0.7; copper_t=0.035; substrate_h=0.8; board_w=6; board_l=50}
! Header version: 2024
! Port assignment regex: !\s*Touchstone port\s*([0-9]+)\s*=\s*(CST MWS port|CST DES external port|CST DES block port)\s*(.+)\s* \(\"(.*)\"\)(\s*mode\s*([0-9]+))?.*
! Touchstone port assignment:
! Touchstone port 1 = CST MWS port 1 ("50 ohm edge launch reference")
# GHz S MA R 50
1                      0.9838821        -80.6228
1.0025                 0.9837195       -80.82735
1.005                  0.9835794       -81.03209
1.0075                 0.9834617       -81.23705
1.01                   0.9833663       -81.44232
1.0125                 0.9832929       -81.64793
1.015                  0.9832413       -81.85395
1.0175                 0.9832111       -82.06044
1.02                   0.9832022       -82.26745
1.0225                 0.9832141       -82.47501
1.025                  0.9832464       -82.68318
1.0275                 0.9832988         -82.892
1.03                   0.9833707       -83.10155
1.0325                 0.9834617       -83.31184
1.035                  0.9835715       -83.52295
1.0375                 0.9836992       -83.73488
1.04                   0.9838446       -83.94768
1.0425                  0.984007       -84.16144
1.045                  0.9841856       -84.37615
1.0475                 0.9843801       -84.59185
1.05                   0.9845896       -84.80855
1.0525                 0.9848136       -85.02636
1.055                  0.9850515       -85.24522
1.0575                 0.9853026       -85.46521
1.06                   0.9855661       -85.68634
1.0625                 0.9858414       -85.90865
1.065                  0.9861277       -86.13214
1.0675                 0.9864243       -86.35682
1.07                   0.9867306       -86.58276
1.0725                 0.9870458       -86.80991
1.075                   0.987369       -87.03837
1.0775                 0.9876997       -87.26802
1.08                    0.988037       -87.49902
1.0825                 0.9883803       -87.73127
1.085                  0.9887287       -87.96484
1.0875                 0.9890816       -88.19969
1.09                   0.9894382       -88.43588
1.0925                 0.9897978       -88.67332
1.095                  0.9901598        -88.9121
1.0975                 0.9905232       -89.15223
1.1                    0.9908875       -89.39358
1.1025                  0.991252       -89.63624
1.105                   0.991616       -89.88022
1.1075                 0.9919788       -90.12547
1.11                   0.9923398       -90.37196
1.1125                 0.9926982       -90.61976
1.115                  0.9930536       -90.86876
1.1175                 0.9934052       -91.11905
1.12                   0.9937525       -91.37051
1.1225                 0.9940949        -91.6232
1.125                  0.9944316       -91.87704
1.1275                 0.9947625       -92.13207
1.13                   0.9950867       -92.38823
1.1325                 0.9954039       -92.64554
1.135                  0.9957134       -92.90391
1.1375                  0.996015       -93.16341
1.14                   0.9963081       -93.42394
1.1425                 0.9965921       -93.68551
1.145                   0.996867       -93.94809
1.1475                 0.9971318       -94.21168
1.15                   0.9973868        -94.4762
1.1525                 0.9976313       -94.74164
1.155                   0.997865       -95.00799
1.1575                 0.9980877       -95.27522
1.16                    0.998299       -95.54329
1.1625                 0.9984987       -95.81221
1.165                  0.9986866       -96.08195
1.1675                 0.9988626       -96.35237
1.17                   0.9990262       -96.62358
1.1725                 0.9991775       -96.89548
1.175                  0.9993163       -97.16805
1.1775                 0.9994424       -97.44129
1.18                   0.9995556       -97.71515
1.1825                 0.9996563       -97.98959
1.185                  0.9997441       -98.26457
1.1875                 0.9998188        -98.5401
1.19                   0.9998808       -98.81612
1.1925                 0.9999298       -99.09264
1.195                  0.9999659       -99.36959
1.1975                 0.9999894       -99.64698
1.2                            1       -99.92475
1.2025                 0.9999981       -100.2029
1.205                  0.9999835       -100.4814
1.2075                 0.9999566       -100.7601
1.21                   0.9999175       -101.0392
1.2125                 0.9998664       -101.3185
1.215                   0.999803       -101.5981
1.2175                 0.9997283       -101.8779
1.22                   0.9996421       -102.1579
1.2225                 0.9995445        -102.438
1.225                  0.9994361       -102.7183
1.2275                 0.9993169       -102.9987
1.23                   0.9991873       -103.2792
1.2325                 0.9990473       -103.5598
1.235                  0.9988977       -103.8405
1.2375                 0.9987385       -104.1212
1.24                   0.9985701        -104.402
1.2425                 0.9983929       -104.6828
1.245                   0.998207       -104.9635
1.2475                  0.998013       -105.2443
1.25                   0.9978112        -105.525
1.2525                  0.997602       -105.8057
1.255                  0.9973857       -106.0864
1.2575                 0.9971628        -106.367
1.26                   0.9969336       -106.6475
1.2625                 0.9966984       -106.9279
1.265                   0.996458       -107.2083
1.2675                 0.9962123       -107.4885
1.27                   0.9959621       -107.7687
1.2725                 0.9957076       -108.0487
1.275                  0.9954492       -108.3287
1.2775                 0.9951875       -108.6085
1.28                   0.9949228       -108.8882
1.2825                 0.9946555       -109.1678
1.285                   0.994386       -109.4473
1.2875                 0.9941147       -109.7267
1.29                   0.9938422        -110.006
1.2925                 0.9935687       -110.2852
1.295                  0.9932947       -110.5643
1.2975                 0.9930204       -110.8432
1.3                    0.9927465       -111.1221
1.3025                 0.9924733       -111.4009
1.305                  0.9922009       -111.6797
1.3075                 0.9919302       -111.9583
1.31                   0.9916611        -112.237
1.3125                 0.9913941       -112.5155
1.315                  0.9911298       -112.7941
1.3175                 0.9908681       -113.0725
1.32                   0.9906097        -113.351
1.3225                 0.9903548       -113.6296
1.325                  0.9901036       -113.9081
1.3275                 0.9898566       -114.1866
1.33                   0.9896139       -114.4652
1.3325                  0.989376       -114.7439
1.335                  0.9891431       -115.0226
1.3375                 0.9889152       -115.3015
1.34                   0.9886929       -115.5804
1.3425                 0.9884764       -115.8596
1.345                  0.9882656       -116.1388
1.3475                  0.988061       -116.4182
1.35                   0.9878627       -116.6979
1.3525                  0.987671       -116.9777
1.355                  0.9874858       -117.2578
1.3575                 0.9873075       -117.5381
1.36                   0.9871362       -117.8188
1.3625                 0.9869717       -118.0997
1.365                  0.9868147        -118.381
1.3675                 0.9866648       -118.6625
1.37                   0.9865224       -118.9445
1.3725                 0.9863872       -119.2269
1.375                  0.9862597       -119.5096
1.3775                 0.9861394       -119.7928
1.38                   0.9860268       -120.0765
1.3825                 0.9859218       -120.3606
1.385                  0.9858242       -120.6453
1.3875                 0.9857343       -120.9304
1.39                   0.9856517       -121.2162
1.3925                 0.9855766       -121.5025
1.395                  0.9855089       -121.7894
1.3975                 0.9854485       -122.0769
1.4                    0.9853952        -122.365
1.4025                 0.9853491       -122.6538
1.405                  0.9853101       -122.9433
1.4075                 0.9852778       -123.2334
1.41                   0.9852522       -123.5243
1.4125                 0.9852333        -123.816
1.415                  0.9852206       -124.1084
1.4175                 0.9852143       -124.4016
1.42                   0.9852142       -124.6955
1.4225                 0.9852199       -124.9903
1.425                  0.9852312        -125.286
1.4275                 0.9852481       -125.5824
1.43                   0.9852701       -125.8798
1.4325                 0.9852971        -126.178
1.435                  0.9853289       -126.4771
1.4375                 0.9853654       -126.7772
1.44                    0.985406       -127.0782
1.4425                 0.9854507       -127.3801
1.445                  0.9854992        -127.683
1.4475                 0.9855512       -127.9868
1.45                   0.9856064       -128.2917
1.4525                 0.9856644       -128.5975
1.455                  0.9857251       -128.9043
1.4575                 0.9857883       -129.2122
1.46                   0.9858533        -129.521
1.4625                 0.9859202       -129.8309
1.465                  0.9859886       -130.1419
1.4675                  0.986058       -130.4539
1.47                   0.9861286       -130.7669
1.4725                 0.9861994        -131.081
1.475                  0.9862706       -131.3962
1.4775                 0.9863418       -131.7125
1.48                   0.9864124       -132.0298
1.4825                 0.9864827       -132.3482
1.485                  0.9865517       -132.6677
1.4875                 0.9866196       -132.9883
1.49                   0.9866858       -133.3099
1.4925                 0.9867502       -133.6327
1.495                  0.9868124       -133.9565
1.4975                 0.9868721       -134.2814
1.5                     0.986929       -134.6075
1.5025                 0.9869828       -134.9346
1.505                  0.9870336       -135.2627
1.5075                 0.9870806        -135.592
1.51                   0.9871236       -135.9224
1.5125                 0.9871627       -136.2538
1.515                  0.9871972       -136.5863
1.5175                 0.9872271       -136.9198
1.52                    0.987252       -137.2545
1.5225                 0.9872719       -137.5902
1.525                  0.9872864       -137.9269
1.5275                 0.9872954       -138.2647
1.53                   0.9872983       -138.6035
1.5325                 0.9872954       -138.9434
1.535                   0.987286       -139.2843
1.5375                 0.9872704       -139.6262
1.54                   0.9872481       -139.9691
1.5425                 0.9872189        -140.313
1.545                  0.9871825       -140.6579
1.5475                 0.9871392       -141.0038
1.55                   0.9870885       -141.3507
1.5525                 0.9870304       -141.6986
1.555                  0.9869646       -142.0474
1.5575                  0.986891       -142.3971
1.56                   0.9868095       -142.7478
1.5625                 0.9867203       -143.0995
1.565                  0.9866229        -143.452
1.5675                 0.9865172       -143.8055
1.57                   0.9864034       -144.1599
1.5725                 0.9862813       -144.5151
1.575                  0.9861506       -144.8713
1.5775                 0.9860115       -145.2283
1.58                   0.9858641       -145.5862
1.5825                 0.9857079       -145.9449
1.585                  0.9855435       -146.3045
1.5875                 0.9853701       -146.6649
1.59                   0.9851882       -147.0262
1.5925                  0.984998       -147.3882
1.595                  0.9847989       -147.7511
1.5975                 0.9845913       -148.1148
1.6                    0.9843752       -148.4792
1.6025                 0.9841503       -148.8445
1.605                  0.9839173       -149.2105
1.6075                 0.9836755       -149.5773
1.61                   0.9834254       -149.9448
1.6125                 0.9831672       -150.3131
1.615                  0.9829004       -150.6822
1.6175                 0.9826256       -151.0519
1.62                   0.9823426       -151.4224
1.6225                 0.9820516       -151.7937
1.625                  0.9817527       -152.1656
1.6275                 0.9814461       -152.5383
1.63                   0.9811316       -152.9117
1.6325                 0.9808095       -153.2857
1.635                    0.98048       -153.6605
1.6375                  0.980143        -154.036
1.64                   0.9797989       -154.4122
1.6425                 0.9794475        -154.789
1.645                  0.9790891       -155.1666
1.6475                  0.978724       -155.5448
1.65                    0.978352       -155.9238
1.6525                 0.9779737       -156.3034
1.655                  0.9775887       -156.6837
1.6575                 0.9771975       -157.0646
1.66                   0.9768003       -157.4463
1.6625                  0.976397       -157.8287
1.665                  0.9759879       -158.2117
1.6675                 0.9755731       -158.5954
1.67                   0.9751528       -158.9799
1.6725                  0.974727        -159.365
1.675                  0.9742962       -159.7509
1.6775                 0.9738602       -160.1374
1.68                   0.9734193       -160.5246
1.6825                 0.9729735       -160.9126
1.685                  0.9725233       -161.3013
1.6875                 0.9720684       -161.6908
1.69                   0.9716091       -162.0809
1.6925                 0.9711459       -162.4718
1.695                  0.9706785       -162.8635
1.6975                 0.9702072       -163.2559
1.7                    0.9697319       -163.6491
1.7025                 0.9692532       -164.0431
1.705                  0.9687707       -164.4379
1.7075                 0.9682848       -164.8335
1.71                   0.9677955       -165.2299
1.7125                 0.9673031       -165.6272
1.715                  0.9668076       -166.0252
1.7175                 0.9663089       -166.4242
1.72                   0.9658074        -166.824
1.7225                  0.965303       -167.2246
1.725                  0.9647956       -167.6262
1.7275                 0.9642856       -168.0287
1.73                   0.9637729       -168.4321
1.7325                 0.9632575       -168.8365
1.735                  0.9627395       -169.2418
1.7375                  0.962219       -169.6481
1.74                   0.9616959       -170.0554
1.7425                 0.9611702       -170.4637
1.745                   0.960642        -170.873
1.7475                 0.9601114       -171.2834
1.75                   0.9595781       -171.6948
1.7525                 0.9590422       -172.1073
1.755                  0.9585037       -172.5209
1.7575                 0.9579628       -172.9356
1.76                   0.9574188       -173.3515
1.7625                 0.9568724       -173.7685
1.765                  0.9563229       -174.1867
1.7675                 0.9557707       -174.6061
1.77                   0.9552153       -175.0267
1.7725                 0.9546569       -175.4486
1.775                  0.9540952       -175.8717
1.7775                 0.9535302       -176.2961
1.78                   0.9529616       -176.7217
1.7825                 0.9523895       -177.1487
1.785                  0.9518135       -177.5771
1.7875                 0.9512336       -178.0068
1.79                   0.9506494       -178.4378
1.7925                 0.9500611       -178.8703
1.795                  0.9494682       -179.3042
1.7975                 0.9488703       -179.7395
1.8                    0.9482677        179.8237
1.8025                 0.9476598        179.3854
1.805                  0.9470464        178.9457
1.8075                 0.9464274        178.5044
1.81                   0.9458023        178.0615
1.8125                 0.9451711        177.6172
1.815                  0.9445333        177.1712
1.8175                 0.9438888        176.7236
1.82                   0.9432371        176.2745
1.8225                  0.942578        175.8237
1.825                  0.9419113        175.3712
1.8275                 0.9412363         174.917
1.83                    0.940553        174.4612
1.8325                 0.9398608        174.0037
1.835                  0.9391596        173.5445
1.8375                 0.9384488        173.0835
1.84                   0.9377284        172.6207
1.8425                 0.9369975        172.1562
1.845                  0.9362561        171.6899
1.8475                 0.9355037        171.2218
1.85                   0.9347399        170.7518
1.8525                 0.9339642        170.2801
1.855                  0.9331763        169.8065
1.8575                 0.9323759         169.331
1.86                   0.9315621        168.8537
1.8625                  0.930735        168.3745
1.865                  0.9298939        167.8934
1.8675                 0.9290384        167.4103
1.87                   0.9281681        166.9254
1.8725                 0.9272825        166.4385
1.875                  0.9263811        165.9497
1.8775                 0.9254634        165.4589
1.88                   0.9245292        164.9662
1.8825                 0.9235779        164.4715
1.885                  0.9226088        163.9749
1.8875                 0.9216218        163.4762
1.89                   0.9206161        162.9756
1.8925                 0.9195915        162.4729
1.895                  0.9185474        161.9683
1.8975                 0.9174834        161.4617
1.9                    0.9163988         160.953
1.9025                 0.9152934        160.4424
1.905                  0.9141666        159.9297
1.9075                 0.9130179         159.415
1.91                   0.9118468        158.8982
1.9125                 0.9106528        158.3795
1.915                  0.9094357        157.8587
1.9175                 0.9081947        157.3358
1.92                   0.9069294         156.811
1.9225                 0.9056394        156.2841
1.925                  0.9043244        155.7552
1.9275                 0.9029836        155.2243
1.93                   0.9016166        154.6913
1.9325                 0.9002232        154.1563
1.935                  0.8988026        153.6193
1.9375                 0.8973547        153.0803
1.94                   0.8958789        152.5392
1.9425                 0.8943747        151.9962
1.945                  0.8928416        151.4512
1.9475                 0.8912794        150.9041
1.95                   0.8896874        150.3551
1.9525                 0.8880656         149.804
1.955                  0.8864131         149.251
1.9575                 0.8847297        148.6961
1.96                   0.8830151        148.1391
1.9625                 0.8812687        147.5802
1.965                  0.8794904        147.0194
1.9675                 0.8776796        146.4566
1.97                    0.875836        145.8919
1.9725                 0.8739591        145.3253
1.975                  0.8720486        144.7567
1.9775                 0.8701044        144.1863
1.98                   0.8681259         143.614
1.9825                 0.8661127        143.0399
1.985                  0.8640646        142.4638
1.9875                 0.8619814        141.8859
1.99                   0.8598626        141.3062
1.9925                 0.8577081        140.7247
1.995                  0.8555172        140.1413
1.9975                 0.8532903        139.5562
2                      0.8510265        138.9693
2.0025                 0.8487258        138.3807
2.005                   0.846388        137.7903
2.0075                 0.8440128        137.1982
2.01                      0.8416        136.6043
2.0125                 0.8391491        136.0088
2.015                  0.8366603        135.4116
2.0175                 0.8341334        134.8127
2.02                   0.8315679        134.2122
2.0225                 0.8289637        133.6101
2.025                  0.8263209        133.0064
2.0275                 0.8236389         132.401
2.03                   0.8209181        131.7942
2.0325                 0.8181578        131.1858
2.035                  0.8153583        130.5758
2.0375                 0.8125193        129.9644
2.04                   0.8096408        129.3514
2.0425                 0.8067226         128.737
2.045                  0.8037647        128.1212
2.0475                  0.800767         127.504
2.05                   0.7977295        126.8853
2.0525                 0.7946522        126.2653
2.055                  0.7915349        125.6439
2.0575                 0.7883777        125.0212
2.06                   0.7851805        124.3972
2.0625                 0.7819434        123.7719
2.065                  0.7786664        123.1454
2.0675                 0.7753495        122.5176
2.07                   0.7719928        121.8886
2.0725                 0.7685963        121.2585
2.075                    0.76516        120.6272
2.0775                  0.761684        119.9947
2.08                   0.7581686        119.3612
2.0825                 0.7546135        118.7266
2.085                  0.7510191        118.0909
2.0875                 0.7473854        117.4542
2.09                   0.7437127        116.8165
2.0925                  0.740001        116.1778
2.095                  0.7362503        115.5382
2.0975                 0.7324612        114.8977
2.1                    0.7286334        114.2563
2.1025                 0.7247673        113.6141
2.105                  0.7208632         112.971
2.1075                 0.7169211        112.3272
2.11                   0.7129414        111.6826
2.1125                 0.7089243        111.0372
2.115                  0.7048699        110.3912
2.1175                 0.7007786        109.7445
2.12                   0.6966506        109.0971
2.1225                 0.6924861        108.4492
2.125                  0.6882855        107.8006
2.1275                 0.6840491        107.1516
2.13                   0.6797771        106.5021
2.1325                 0.6754699         105.852
2.135                  0.6711279        105.2016
2.1375                 0.6667511        104.5508
2.14                   0.6623402        103.8995
2.1425                 0.6578955         103.248
2.145                  0.6534173        102.5962
2.1475                 0.6489059        101.9442
2.15                   0.6443617        101.2919
2.1525                 0.6397852        100.6395
2.155                  0.6351767        99.98696
2.1575                 0.6305368        99.33433
2.16                   0.6258657        98.68165
2.1625                 0.6211638        98.02899
2.165                  0.6164316        97.37635
2.1675                 0.6116696        96.72379
2.17                   0.6068783        96.07139
2.1725                 0.6020581        95.41915
2.175                  0.5972094        94.76714
2.1775                 0.5923327         94.1154
2.18                   0.5874286        93.46398
2.1825                 0.5824975        92.81294
2.185                  0.5775399        92.16229
2.1875                 0.5725563        91.51214
2.19                   0.5675472        90.86252
2.1925                 0.5625131        90.21348
2.195                  0.5574547        89.56507
2.1975                 0.5523724        88.91735
2.2                    0.5472668         88.2704
2.2025                 0.5421382        87.62426
2.205                  0.5369876        86.97898
2.2075                 0.5318153        86.33467
2.21                   0.5266219        85.69134
2.2125                 0.5214079        85.04909
2.215                   0.516174        84.40798
2.2175                 0.5109207         83.7681
2.22                   0.5056487        83.12948
2.2225                 0.5003585        82.49223
2.225                  0.4950508        81.85644
2.2275                 0.4897261        81.22215
2.23                   0.4843851        80.58947
2.2325                 0.4790283        79.95847
2.235                  0.4736565        79.32925
2.2375                 0.4682702         78.7019
2.24                   0.4628701        78.07653
2.2425                 0.4574568        77.45321
2.245                   0.452031        76.83204
2.2475                 0.4465932        76.21317
2.25                   0.4411444        75.59667
2.2525                 0.4356849        74.98266
2.255                  0.4302155        74.37126
2.2575                 0.4247368        73.76261
2.26                   0.4192497        73.15681
2.2625                 0.4137546        72.55402
2.265                  0.4082523        71.95437
2.2675                 0.4027436          71.358
2.27                    0.397229        70.76508
2.2725                 0.3917093        70.17575
2.275                  0.3861851        69.59018
2.2775                 0.3806573        69.00855
2.28                   0.3751265        68.43103
2.2825                 0.3695934        67.85783
2.285                  0.3640587        67.28915
2.2875                 0.3585233        66.72519
2.29                   0.3529876         66.1662
2.2925                 0.3474527        65.61237
2.295                  0.3419191        65.06398
2.2975                 0.3363877        64.52128
2.3                    0.3308592        63.98454
2.3025                 0.3253343        63.45405
2.305                  0.3198139        62.93015
2.3075                 0.3142986         62.4131
2.31                   0.3087895        61.90331
2.3125                 0.3032871        61.40112
2.315                  0.2977924        60.90691
2.3175                 0.2923062         60.4211
2.32                   0.2868293        59.94413
2.3225                 0.2813624        59.47648
2.325                  0.2759066        59.01863
2.3275                 0.2704627        58.57113
2.33                   0.2650316        58.13455
2.3325                 0.2596142        57.70948
2.335                  0.2542116        57.29661
2.3375                 0.2488244        56.89662
2.34                    0.243454        56.51027
2.3425                 0.2381012        56.13837
2.345                  0.2327671        55.78181
2.3475                 0.2274528        55.44153
2.35                   0.2221594        55.11854
2.3525                 0.2168882        54.81394
2.355                  0.2116403        54.52896
2.3575                  0.206417        54.26487
2.36                   0.2012196        54.02307
2.3625                 0.1960497        53.80512
2.365                  0.1909087        53.61268
2.3675                 0.1857981        53.44756
2.37                   0.1807198        53.31177
2.3725                 0.1756754        53.20746
2.375                  0.1706669        53.13702
2.3775                 0.1656963        53.10307
2.38                    0.160766        53.10849
2.3825                 0.1558783        53.15642
2.385                  0.1510358        53.25032
2.3875                 0.1462415        53.39403
2.39                   0.1414985        53.59175
2.3925                 0.1368102        53.84813
2.395                  0.1321804         54.1683
2.3975                 0.1276134        54.55789
2.4                    0.1231138        55.02316
2.4025                 0.1186868        55.57093
2.405                  0.1143383        56.20875
2.4075                 0.1100747        56.94484
2.41                   0.1059034        57.78822
2.4125                 0.1018324        58.74862
2.415                 0.09787097        59.83655
2.4175                0.09402927        61.06315
2.42                  0.09031884        62.44012
2.4225                0.08675247        63.97948
2.425                 0.08334437        65.69324
2.4275                0.08011026        67.59283
2.43                  0.07706725        69.68854
2.4325                0.07423386        71.98854
2.435                  0.0716297        74.49781
2.4375                0.06927514        77.21691
2.44                   0.0671907        80.14063
2.4425                0.06539623        83.25665
2.445                 0.06391004        86.54475
2.4475                0.06274774        89.97635
2.45                  0.06192113        93.51504
2.4525                0.06143723        97.11805
2.455                 0.06129757        100.7386
2.4575                0.06149791        104.3287
2.46                  0.06202839        107.8427
2.4625                0.06287416        111.2397
2.465                 0.06401631        114.4858
2.4675                0.06543307        117.5552
2.47                   0.0671009        120.4304
2.4725                0.06899565        123.1016
2.475                 0.07109337        125.5656
2.4775                0.07337107        127.8246
2.48                  0.07580708        129.8849
2.4825                0.07838142        131.7553
2.485                 0.08107589        133.4467
2.4875                0.08387403        134.9707
2.49                  0.08676114        136.3395
2.4925                 0.0897241        137.5648
2.495                 0.09275131        138.6584
2.4975                0.09583252         139.631
2.5                   0.09895866         140.493
2.5025                 0.1021217        141.2538
2.505                  0.1053147        141.9222
2.5075                 0.1085313        142.5062
2.51                    0.111766        143.0131
2.5125                 0.1150141        143.4494
2.515                  0.1182712        143.8213
2.5175                 0.1215335        144.1342
2.52                   0.1247976         144.393
2.5225                 0.1280606        144.6022
2.525                  0.1313198        144.7659
2.5275                 0.1345728        144.8878
2.53                   0.1378174        144.9713
2.5325                 0.1410518        145.0194
2.535                  0.1442744        145.0348
2.5375                 0.1474836        145.0201
2.54                   0.1506781        144.9776
2.5425                 0.1538566        144.9094
2.545                  0.1570182        144.8173
2.5475                 0.1601618        144.7033
2.55                   0.1632866        144.5688
2.5525                 0.1663919        144.4154
2.555                   0.169477        144.2444
2.5575                 0.1725413        144.0571
2.56                   0.1755842        143.8546
2.5625                 0.1786054         143.638
2.565                  0.1816043        143.4083
2.5675                 0.1845807        143.1663
2.57                   0.1875343        142.9129
2.5725                 0.1904648         142.649
2.575                  0.1933719        142.3751
2.5775                 0.1962556        142.0921
2.58                   0.1991157        141.8004
2.5825                  0.201952        141.5007
2.585                  0.2047645        141.1935
2.5875                 0.2075532        140.8794
2.59                    0.210318        140.5588
2.5925                  0.213059        140.2321
2.595                   0.215776        139.8998
2.5975                 0.2184694        139.5622
2.6                     0.221139        139.2197
2.6025                 0.2237849        138.8726
2.605                  0.2264073        138.5212
2.6075                 0.2290063         138.166
2.61                    0.231582         137.807
2.6125                 0.2341346        137.4446
2.615                  0.2366642         137.079
2.6175                  0.239171        136.7105
2.62                   0.2416552        136.3392
2.6225                 0.2441171        135.9654
2.625                  0.2465567        135.5893
2.6275                 0.2489744         135.211
2.63                   0.2513703        134.8307
2.6325                 0.2537448        134.4485
2.635                   0.256098        134.0647
2.6375                 0.2584301        133.6793
2.64                   0.2607416        133.2925
2.6425                 0.2630325        132.9045
2.645                  0.2653033        132.5152
2.6475                  0.267554        132.1249
2.65                   0.2697852        131.7336
2.6525                 0.2719969        131.3414
2.655                  0.2741896        130.9485
2.6575                 0.2763636        130.5548
2.66                   0.2785189        130.1605
2.6625                 0.2806562        129.7657
2.665                  0.2827755        129.3704
2.6675                 0.2848772        128.9747
2.67                   0.2869616        128.5787
2.6725                 0.2890291        128.1823
2.675                  0.2910798        127.7857
2.6775                 0.2931142        127.3889
2.68                   0.2951324        126.9919
2.6825                 0.2971349        126.5949
2.685                  0.2991219        126.1977
2.6875                 0.3010937        125.8005
2.69                   0.3030507        125.4033
2.6925                  0.304993        125.0061
2.695                  0.3069211        124.6089
2.6975                 0.3088351        124.2119
2.7                    0.3107354        123.8149
2.7025                 0.3126223         123.418
2.705                  0.3144961        123.0212
2.7075                  0.316357        122.6245
2.71                   0.3182052        122.2281
2.7125                 0.3200412        121.8317
2.715                   0.321865        121.4355
2.7175                 0.3236771        121.0395
2.72                   0.3254776        120.6437
2.7225                 0.3272668        120.2481
2.725                  0.3290449        119.8526
2.7275                 0.3308123        119.4573
2.73                    0.332569        119.0623
2.7325                 0.3343153        118.6673
2.735                  0.3360515        118.2726
2.7375                 0.3377779         117.878
2.74                   0.3394944        117.4837
2.7425                 0.3412015        117.0895
2.745                  0.3428992        116.6954
2.7475                 0.3445877        116.3015
2.75                   0.3462673        115.9077
2.7525                 0.3479382        115.5141
2.755                  0.3496003        115.1206
2.7575                  0.351254        114.7272
2.76                   0.3528994         114.334
2.7625                 0.3545366        113.9408
2.765                  0.3561658        113.5477
2.7675                  0.357787        113.1547
2.77                   0.3594005        112.7617
2.7725                 0.3610062        112.3688
2.775                  0.3626044         111.976
2.7775                 0.3641951        111.5831
2.78                   0.3657784        111.1903
2.7825                 0.3673544        110.7975
2.785                  0.3689232        110.4047
2.7875                 0.3704848        110.0119
2.79                   0.3720392        109.6191
2.7925                 0.3735866        109.2262
2.795                   0.375127        108.8332
2.7975                 0.3766604        108.4402
2.8                    0.3781869        108.0472
2.8025                 0.3797064         107.654
2.805                   0.381219        107.2608
2.8075                 0.3827247        106.8675
2.81                   0.3842236         106.474
2.8125                 0.3857155        106.0805
2.815                  0.3872005        105.6868
2.8175                 0.3886785         105.293
2.82                   0.3901496        104.8991
2.8225                 0.3916137         104.505
2.825                  0.3930708        104.1107
2.8275                 0.3945209        103.7163
2.83                   0.3959639        103.3218
2.8325                 0.3973997        102.9271
2.835                  0.3988283        102.5322
2.8375                 0.4002496        102.1371
2.84                   0.4016636        101.7419
2.8425                 0.4030702        101.3465
2.845                  0.4044693        100.9509
2.8475                 0.4058609        100.5552
2.85                   0.4072449        100.1593
2.8525                 0.4086211        99.76316
2.855                  0.4099896        99.36689
2.8575                 0.4113501        98.97046
2.86                   0.4127027        98.57386
2.8625                 0.4140472        98.17709
2.865                  0.4153835        97.78018
2.8675                 0.4167116        97.38311
2.87                   0.4180314        96.98591
2.8725                 0.4193426        96.58856
2.875                  0.4206453        96.19107
2.8775                 0.4219393        95.79347
2.88                   0.4232245        95.39573
2.8825                 0.4245009        94.99791
2.885                  0.4257682            94.6
2.8875                 0.4270266        94.20201
2.89                   0.4282757        93.80393
2.8925                 0.4295154        93.40578
2.895                  0.4307459        93.00761
2.8975                 0.4319668         92.6094
2.9                    0.4331782        92.21116
2.9025                 0.4343798        91.81291
2.905                  0.4355717        91.41466
2.9075                 0.4367538        91.01646
2.91                   0.4379258        90.61829
2.9125                 0.4390878        90.22016
2.915                  0.4402397        89.82211
2.9175                 0.4413813        89.42415
2.92                   0.4425127        89.02631
2.9225                 0.4436337        88.62857
2.925                  0.4447442          88.231
2.9275                 0.4458443        87.83359
2.93                   0.4469338        87.43635
2.9325                 0.4480126        87.03932
2.935                  0.4490808        86.64252
2.9375                 0.4501382        86.24594
2.94                    0.451185        85.84964
2.9425                 0.4522208        85.45363
2.945                  0.4532458        85.05791
2.9475                   0.45426        84.66251
2.95                   0.4552632        84.26747
2.9525                 0.4562556        83.87281
2.955                  0.4572371        83.47853
2.9575                 0.4582076        83.08464
2.96                   0.4591672        82.69122
2.9625                 0.4601159        82.29824
2.965                  0.4610537        81.90574
2.9675                 0.4619806        81.51374
2.97                   0.4628967        81.12226
2.9725                 0.4638019        80.73132
2.975                  0.4646964        80.34096
2.9775                 0.4655801        79.95117
2.98                   0.4664532        79.56201
2.9825                 0.4673156        79.17346
2.985                  0.4681675        78.78557
2.9875                 0.4690089        78.39834
2.99                   0.4698398        78.01183
2.9925                 0.4706606        77.62601
2.995                   0.471471        77.24093
2.9975                 0.4722714         76.8566
3                      0.4730617        76.47305
3.0025                 0.4738422         76.0903
3.005                  0.4746129        75.70834
3.0075                 0.4753739        75.32723
3.01                   0.4761254        74.94694
3.0125                 0.4768676        74.56753
3.015                  0.4776005          74.189
3.0175                 0.4783243        73.81138
3.02                   0.4790393        73.43465
3.0225                 0.4797456        73.05886
3.025                  0.4804432        72.68401
3.0275                 0.4811324        72.31013
3.03                   0.4818134         71.9372
3.0325                 0.4824864        71.56526
3.035                  0.4831516        71.19432
3.0375                 0.4838091        70.82437
3.04                   0.4844592        70.45546
3.0425                 0.4851021        70.08756
3.045                  0.4857379        69.72068
3.0475                  0.486367        69.35487
3.05                   0.4869895        68.99009
3.0525                 0.4876057        68.62637
3.055                  0.4882157        68.26372
3.0575                 0.4888199        67.90212
3.06                   0.4894184         67.5416
3.0625                 0.4900114        67.18216
3.065                  0.4905993        66.82379
3.0675                 0.4911823        66.46649
3.07                   0.4917605        66.11027
3.0725                 0.4923344        65.75513
3.075                  0.4929039        65.40106
3.0775                 0.4934697        65.04805
3.08                   0.4940316        64.69612
3.0825                 0.4945901        64.34525
3.085                  0.4951454        63.99544
3.0875                 0.4956977        63.64668
3.09                   0.4962473        63.29895
3.0925                 0.4967945        62.95226
3.095                  0.4973394         62.6066
3.0975                 0.4978824        62.26195
3.1                    0.4984236        61.91831
3.1025                 0.4989633        61.57565
3.105                  0.4995017        61.23397
3.1075                 0.5000392        60.89325
3.11                   0.5005757        60.55349
3.1125                 0.5011118        60.21465
3.115                  0.5016474        59.87672
3.1175                  0.502183        59.53969
3.12                   0.5027187        59.20354
3.1225                 0.5032546        58.86826
3.125                  0.5037909         58.5338
3.1275                  0.504328        58.20016
3.13                   0.5048659        57.86732
3.1325                 0.5054049        57.53525
3.135                  0.5059451        57.20393
3.1375                 0.5064867        56.87333
3.14                   0.5070298        56.54344
3.1425                 0.5075747        56.21421
3.145                  0.5081214        55.88564
3.1475                   0.50867        55.55768
3.15                   0.5092209        55.23034
3.1525                 0.5097739        54.90354
3.155                  0.5103293        54.57729
3.1575                 0.5108871        54.25155
3.16                   0.5114476        53.92629
3.1625                 0.5120106         53.6015
3.165                  0.5125763        53.27712
3.1675                 0.5131448        52.95314
3.17                   0.5137161        52.62952
3.1725                 0.5142902        52.30624
3.175                  0.5148673        51.98327
3.1775                 0.5154473        51.66057
3.18                   0.5160301        51.33812
3.1825                 0.5166159        51.01588
3.185                  0.5172046        50.69383
3.1875                 0.5177963        50.37193
3.19                   0.5183908        50.05017
3.1925                 0.5189881         49.7285
3.195                  0.5195881        49.40689
3.1975                 0.5201908        49.08534
3.2                    0.5207962        48.76379
3.2025                  0.521404        48.44222
3.205                  0.5220145        48.12061
3.2075                  0.522627        47.79893
3.21                   0.5232419        47.47715
3.2125                 0.5238589        47.15525
3.215                  0.5244778        46.83321
3.2175                 0.5250984        46.51098
3.22                   0.5257208        46.18857
3.2225                 0.5263446        45.86593
3.225                  0.5269697        45.54306
3.2275                 0.5275959        45.21992
3.23                   0.5282229        44.89651
3.2325                 0.5288507        44.57277
3.235                  0.5294789        44.24873
3.2375                 0.5301075        43.92434
3.24                   0.5307361         43.5996
3.2425                 0.5313644        43.27449
3.245                  0.5319923        42.94899
3.2475                 0.5326196        42.62309
3.25                   0.5332459        42.29678
3.2525                 0.5338709        41.97004
3.255                  0.5344945        41.64288
3.2575                 0.5351162        41.31526
3.26                    0.535736        40.98719
3.2625                 0.5363535        40.65867
3.265                  0.5369683        40.32969
3.2675                 0.5375802        40.00024
3.27                   0.5381889        39.67032
3.2725                  0.538794        39.33993
3.275                  0.5393954        39.00907
3.2775                 0.5399927        38.67773
3.28                   0.5405855        38.34593
3.2825                 0.5411737        38.01366
3.285                  0.5417568        37.68093
3.2875                 0.5423346        37.34774
3.29                   0.5429067        37.01411
3.2925                 0.5434729        36.68004
3.295                  0.5440329        36.34553
3.2975                 0.5445863        36.01061
3.3                    0.5451329        35.67529
3.3025                 0.5456723        35.33957
3.305                  0.5462043        35.00346
3.3075                 0.5467286        34.66699
3.31                   0.5472449        34.33016
3.3125                 0.5477529        33.99305
3.315                  0.5482523        33.65558
3.3175                 0.5487429        33.31784
3.32                   0.5492244        32.97986
3.3225                 0.5496966         32.6416
3.325                  0.5501591        32.30312
3.3275                 0.5506119        31.96445
3.33                   0.5510546        31.62562
3.3325                  0.551487        31.28665
3.335                   0.551909        30.94755
3.3375                 0.5523201        30.60836
3.34                   0.5527205        30.26909
3.3425                 0.5531097        29.92985
3.345                  0.5534877        29.59058
3.3475                 0.5538543        29.25134
3.35                   0.5542093        28.91218
3.3525                 0.5545526         28.5731
3.355                  0.5548842        28.23416
3.3575                 0.5552037        27.89541
3.36                   0.5555112        27.55684
3.3625                 0.5558065        27.21852
3.365                  0.5560897        26.88048
3.3675                 0.5563606        26.54275
3.37                   0.5566193        26.20537
3.3725                 0.5568656        25.86838
3.375                  0.5570996        25.53181
3.3775                 0.5573212         25.1957
3.38                   0.5575305         24.8601
3.3825                 0.5577275        24.52503
3.385                  0.5579123        24.19055
3.3875                 0.5580848        23.85668
3.39                   0.5582452        23.52347
3.3925                 0.5583937        23.19094
3.395                  0.5585302        22.85915
3.3975                  0.558655        22.52814
3.4                    0.5587681        22.19793
3.4025                 0.5588698        21.86856
3.405                  0.5589602        21.54008
3.4075                 0.5590395        21.21252
3.41                   0.5591078        20.88591
3.4125                 0.5591655         20.5603
3.415                  0.5592129        20.23572
3.4175                   0.55925        19.91219
3.42                   0.5592772        19.58977
3.4225                 0.5592948        19.26847
3.425                  0.5593032        18.94833
3.4275                 0.5593025        18.62939
3.43                   0.5592933        18.31166
3.4325                 0.5592757        17.99519
3.435                  0.5592502           17.68
3.4375                 0.5592173        17.36612
3.44                   0.5591771        17.05356
3.4425                 0.5591302        16.74237
3.445                   0.559077        16.43255
3.4475                 0.5590179        16.12413
3.45                   0.5589534        15.81714
3.4525                 0.5588839        15.51158
3.455                  0.5588099        15.20747
3.4575                 0.5587318        14.90484
3.46                   0.5586502        14.60368
3.4625                 0.5585657        14.30402
3.465                  0.5584785        14.00587
3.4675                 0.5583894        13.70922
3.47                   0.5582987        13.41409
3.4725                 0.5582071        13.12047
3.475                   0.558115        12.82838
3.4775                 0.5580231         12.5378
3.48                   0.5579319        12.24873
3.4825                 0.5578418        11.96118
3.485                  0.5577534        11.67512
3.4875                 0.5576674        11.39055
3.49                   0.5575843        11.10745
3.4925                 0.5575046        10.82582
3.495                  0.5574288        10.54563
3.4975                 0.5573576        10.26687
3.5                    0.5572915        9.989499
