! TOUCHSTONE file generated by CST MICROWAVE STUDIO
! Date and time: Wed Oct  7 17:50:40 2026
! Project name: antenna.cst
! Parameters = {substrate_tand=0.02; substrate_er=4.4; gap_mm=5; feed_start_x=24.3; series_c_pf=1.8; omit_soldermask=1; coax_pigtail=1; feed_contact_inside=1; explicit_via_pads=1; feed_x=24.85; copper_edge_clearance=0.3; housing_air=0.25; housing_wall=1; shield_extension=0; via_plating_t=0.025; via_drill_r=0.15; via_outer_r=0.35; radiator_y=2; feed_y=1.1; feed_w=1.5; feed_offset=6; short_offset=9; ground_l=28; tail_l=23.6; segment_l=23.6; meander_count=1; trace_gap=0.5; trace_w=0.7; copper_t=0.035; substrate_h=0.8; board_w=6; board_l=50}
! Header version: 2024
! Port assignment regex: !\s*Touchstone port\s*([0-9]+)\s*=\s*(CST MWS port|CST DES external port|CST DES block port)\s*(.+)\s* \(\"(.*)\"\)(\s*mode\s*([0-9]+))?.*
! Touchstone port assignment:
! Touchstone port 1 = CST MWS port 1 ("50 ohm edge launch reference")
# GHz S MA R 50
1                      0.9841089       -80.60172
1.0025                 0.9839642       -80.80675
1.005                  0.9838416       -81.01201
1.0075                  0.983741       -81.21754
1.01                   0.9836622        -81.4234
1.0125                 0.9836049       -81.62966
1.015                  0.9835688       -81.83636
1.0175                 0.9835536       -82.04355
1.02                   0.9835593       -82.25128
1.0225                  0.983585        -82.4596
1.025                  0.9836305       -82.66858
1.0275                 0.9836955       -82.87823
1.03                   0.9837795       -83.08863
1.0325                 0.9838819       -83.29979
1.035                  0.9840023        -83.5118
1.0375                 0.9841401       -83.72463
1.04                   0.9842947       -83.93842
1.0425                 0.9844655        -84.1531
1.045                  0.9846523       -84.36877
1.0475                  0.984854       -84.58545
1.05                   0.9850701       -84.80315
1.0525                 0.9852999       -85.02193
1.055                  0.9855429       -85.24181
1.0575                 0.9857984       -85.46283
1.06                   0.9860656       -85.68495
1.0625                 0.9863439        -85.9083
1.065                  0.9866325       -86.13282
1.0675                 0.9869308       -86.35852
1.07                   0.9872379       -86.58544
1.0725                 0.9875533       -86.81362
1.075                   0.987876       -87.04306
1.0775                 0.9882057       -87.27373
1.08                   0.9885412       -87.50569
1.0825                  0.988882       -87.73895
1.085                  0.9892275       -87.97347
1.0875                 0.9895766       -88.20928
1.09                    0.989929        -88.4464
1.0925                 0.9902837       -88.68477
1.095                  0.9906402       -88.92445
1.0975                 0.9909977       -89.16542
1.1                    0.9913555       -89.40768
1.1025                 0.9917129       -89.65121
1.105                  0.9920693       -89.89598
1.1075                  0.992424       -90.14203
1.11                   0.9927764       -90.38934
1.1125                  0.993126       -90.63785
1.115                  0.9934719       -90.88759
1.1175                 0.9938137       -91.13856
1.12                   0.9941508        -91.3907
1.1225                 0.9944826       -91.64402
1.125                  0.9948085       -91.89848
1.1275                 0.9951281        -92.1541
1.13                   0.9954408       -92.41083
1.1325                 0.9957461       -92.66863
1.135                  0.9960436       -92.92755
1.1375                 0.9963329        -93.1875
1.14                   0.9966133       -93.44847
1.1425                 0.9968848       -93.71045
1.145                  0.9971466       -93.97341
1.1475                 0.9973987        -94.2373
1.15                   0.9976404       -94.50215
1.1525                 0.9978718       -94.76787
1.155                  0.9980921        -95.0345
1.1575                 0.9983014       -95.30197
1.16                   0.9984994        -95.5702
1.1625                 0.9986858       -95.83928
1.165                  0.9988603       -96.10913
1.1675                 0.9990229       -96.37969
1.17                   0.9991733       -96.65093
1.1725                 0.9993114       -96.92288
1.175                  0.9994371       -97.19548
1.1775                 0.9995502       -97.46869
1.18                   0.9996508       -97.74247
1.1825                 0.9997386       -98.01683
1.185                   0.999814       -98.29173
1.1875                 0.9998764       -98.56712
1.19                   0.9999263       -98.84301
1.1925                 0.9999634       -99.11936
1.195                  0.9999879       -99.39609
1.1975                         1       -99.67323
1.2                    0.9999996       -99.95076
1.2025                 0.9999868       -100.2286
1.205                  0.9999618       -100.5068
1.2075                 0.9999248       -100.7852
1.21                   0.9998759        -101.064
1.2125                 0.9998153       -101.3429
1.215                   0.999743       -101.6221
1.2175                 0.9996594       -101.9015
1.22                   0.9995647       -102.1811
1.2225                 0.9994594       -102.4608
1.225                  0.9993433       -102.7407
1.2275                  0.999217       -103.0206
1.23                   0.9990806       -103.3007
1.2325                 0.9989345       -103.5808
1.235                   0.998779        -103.861
1.2375                 0.9986143       -104.1412
1.24                   0.9984409       -104.4215
1.2425                 0.9982591       -104.7017
1.245                  0.9980691        -104.982
1.2475                 0.9978715       -105.2622
1.25                   0.9976666       -105.5424
1.2525                 0.9974546       -105.8226
1.255                   0.997236       -106.1027
1.2575                 0.9970113       -106.3827
1.26                   0.9967808       -106.6627
1.2625                 0.9965448       -106.9426
1.265                  0.9963038       -107.2224
1.2675                 0.9960581       -107.5021
1.27                   0.9958082       -107.7818
1.2725                 0.9955546       -108.0613
1.275                  0.9952976       -108.3407
1.2775                 0.9950376         -108.62
1.28                    0.994775       -108.8993
1.2825                 0.9945102       -109.1784
1.285                  0.9942437       -109.4574
1.2875                 0.9939759       -109.7363
1.29                   0.9937071       -110.0151
1.2925                 0.9934377       -110.2939
1.295                  0.9931682       -110.5725
1.2975                 0.9928988       -110.8511
1.3                    0.9926301       -111.1295
1.3025                 0.9923625        -111.408
1.305                   0.992096       -111.6863
1.3075                 0.9918314       -111.9646
1.31                    0.991569       -112.2429
1.3125                 0.9913087       -112.5211
1.315                  0.9910514       -112.7994
1.3175                 0.9907971       -113.0776
1.32                   0.9905461       -113.3558
1.3225                  0.990299       -113.6341
1.325                   0.990056       -113.9124
1.3275                 0.9898172       -114.1907
1.33                   0.9895829       -114.4691
1.3325                 0.9893536       -114.7477
1.335                  0.9891293       -115.0263
1.3375                 0.9889103        -115.305
1.34                   0.9886972       -115.5839
1.3425                 0.9884895       -115.8629
1.345                  0.9882881       -116.1422
1.3475                 0.9880928       -116.4216
1.35                   0.9879036       -116.7012
1.3525                 0.9877214       -116.9811
1.355                  0.9875457       -117.2612
1.3575                 0.9873767       -117.5417
1.36                   0.9872148       -117.8224
1.3625                 0.9870597       -118.1034
1.365                  0.9869119       -118.3848
1.3675                 0.9867714       -118.6666
1.37                    0.986638       -118.9488
1.3725                 0.9865122       -119.2314
1.375                  0.9863936       -119.5144
1.3775                 0.9862824       -119.7979
1.38                   0.9861786       -120.0818
1.3825                 0.9860822       -120.3663
1.385                  0.9859932       -120.6513
1.3875                 0.9859115       -120.9368
1.39                    0.985837       -121.2229
1.3925                 0.9857698       -121.5096
1.395                  0.9857098       -121.7969
1.3975                 0.9856569       -122.0848
1.4                    0.9856109       -122.3734
1.4025                 0.9855718       -122.6627
1.405                  0.9855396       -122.9527
1.4075                 0.9855137       -123.2434
1.41                   0.9854943       -123.5348
1.4125                 0.9854814        -123.827
1.415                  0.9854744       -124.1199
1.4175                 0.9854735       -124.4137
1.42                   0.9854784       -124.7082
1.4225                 0.9854888       -125.0036
1.425                  0.9855046       -125.2999
1.4275                 0.9855254       -125.5969
1.43                   0.9855512       -125.8949
1.4325                 0.9855816       -126.1938
1.435                  0.9856166       -126.4936
1.4375                 0.9856557       -126.7943
1.44                   0.9856988       -127.0959
1.4425                 0.9857453       -127.3985
1.445                  0.9857955       -127.7021
1.4475                 0.9858488       -128.0066
1.45                   0.9859049       -128.3121
1.4525                 0.9859635       -128.6186
1.455                  0.9860246       -128.9261
1.4575                 0.9860874       -129.2347
1.46                   0.9861521       -129.5442
1.4625                 0.9862181       -129.8548
1.465                  0.9862853       -130.1665
1.4675                 0.9863533       -130.4791
1.47                   0.9864218       -130.7929
1.4725                 0.9864906       -131.1077
1.475                  0.9865591       -131.4235
1.4775                 0.9866273       -131.7404
1.48                   0.9866951       -132.0584
1.4825                 0.9867616       -132.3775
1.485                  0.9868269       -132.6976
1.4875                 0.9868904       -133.0188
1.49                   0.9869523       -133.3411
1.4925                 0.9870118       -133.6645
1.495                  0.9870691        -133.989
1.4975                 0.9871235       -134.3145
1.5                    0.9871749       -134.6411
1.5025                  0.987223       -134.9688
1.505                  0.9872677       -135.2976
1.5075                 0.9873082       -135.6274
1.51                   0.9873448       -135.9583
1.5125                 0.9873771       -136.2903
1.515                  0.9874048       -136.6233
1.5175                 0.9874276       -136.9574
1.52                   0.9874452       -137.2925
1.5225                 0.9874576       -137.6287
1.525                  0.9874645       -137.9659
1.5275                 0.9874656       -138.3041
1.53                   0.9874607       -138.6434
1.5325                 0.9874495       -138.9837
1.535                  0.9874319        -139.325
1.5375                 0.9874081       -139.6673
1.54                   0.9873771       -140.0106
1.5425                 0.9873396       -140.3548
1.545                  0.9872948       -140.7001
1.5475                 0.9872429       -141.0463
1.55                   0.9871836       -141.3935
1.5525                 0.9871168       -141.7417
1.555                  0.9870422       -142.0908
1.5575                   0.98696       -142.4408
1.56                   0.9868701       -142.7917
1.5625                 0.9867719       -143.1436
1.565                  0.9866658       -143.4964
1.5675                 0.9865517       -143.8501
1.57                   0.9864293       -144.2046
1.5725                 0.9862987       -144.5601
1.575                  0.9861599       -144.9164
1.5775                 0.9860125       -145.2735
1.58                   0.9858567       -145.6315
1.5825                 0.9856926       -145.9904
1.585                  0.9855198       -146.3501
1.5875                 0.9853389       -146.7106
1.59                   0.9851494       -147.0719
1.5925                 0.9849515       -147.4341
1.595                  0.9847449        -147.797
1.5975                 0.9845302       -148.1607
1.6                     0.984307       -148.5252
1.6025                 0.9840753       -148.8905
1.605                  0.9838355       -149.2565
1.6075                 0.9835872       -149.6233
1.61                    0.983331       -149.9908
1.6125                 0.9830666       -150.3591
1.615                  0.9827941       -150.7281
1.6175                 0.9825136       -151.0979
1.62                   0.9822254       -151.4684
1.6225                 0.9819293       -151.8395
1.625                  0.9816255       -152.2115
1.6275                 0.9813141       -152.5841
1.63                   0.9809951       -152.9574
1.6325                 0.9806689       -153.3314
1.635                  0.9803356       -153.7061
1.6375                 0.9799949       -154.0816
1.64                   0.9796474       -154.4577
1.6425                 0.9792929       -154.8345
1.645                  0.9789317        -155.212
1.6475                  0.978564       -155.5902
1.65                   0.9781897        -155.969
1.6525                 0.9778091       -156.3486
1.655                  0.9774225       -156.7289
1.6575                 0.9770297       -157.1098
1.66                   0.9766312       -157.4914
1.6625                 0.9762269       -157.8738
1.665                   0.975817       -158.2568
1.6675                 0.9754016       -158.6405
1.67                    0.974981       -159.0249
1.6725                 0.9745552       -159.4101
1.675                  0.9741246       -159.7959
1.6775                 0.9736888       -160.1825
1.68                   0.9732486       -160.5698
1.6825                 0.9728037       -160.9578
1.685                  0.9723544       -161.3465
1.6875                 0.9719009        -161.736
1.69                   0.9714432       -162.1263
1.6925                 0.9709815       -162.5173
1.695                  0.9705158       -162.9091
1.6975                 0.9700465       -163.3016
1.7                    0.9695735        -163.695
1.7025                 0.9690969       -164.0891
1.705                  0.9686169       -164.4841
1.7075                 0.9681335       -164.8799
1.71                    0.967647       -165.2765
1.7125                 0.9671574        -165.674
1.715                  0.9666646       -166.0723
1.7175                  0.966169       -166.4715
1.72                   0.9656704       -166.8716
1.7225                  0.965169       -167.2726
1.725                  0.9646649       -167.6745
1.7275                 0.9641579       -168.0773
1.73                   0.9636485       -168.4811
1.7325                 0.9631363       -168.8859
1.735                  0.9626214       -169.2916
1.7375                  0.962104       -169.6983
1.74                   0.9615841       -170.1061
1.7425                 0.9610614       -170.5149
1.745                  0.9605362       -170.9247
1.7475                 0.9600084       -171.3356
1.75                    0.959478       -171.7476
1.7525                 0.9589449       -172.1606
1.755                   0.958409       -172.5749
1.7575                 0.9578705       -172.9902
1.76                   0.9573288       -173.4067
1.7625                 0.9567845       -173.8244
1.765                   0.956237       -174.2433
1.7675                 0.9556865       -174.6634
1.77                   0.9551326       -175.0848
1.7725                 0.9545755       -175.5074
1.775                  0.9540149       -175.9313
1.7775                 0.9534506       -176.3564
1.78                   0.9528827       -176.7829
1.7825                 0.9523107       -177.2108
1.785                  0.9517347         -177.64
1.7875                 0.9511544       -178.0706
1.79                   0.9505697       -178.5025
1.7925                 0.9499802       -178.9359
1.795                  0.9493857       -179.3708
1.7975                 0.9487862       -179.8071
1.8                    0.9481814        179.7551
1.8025                 0.9475711        179.3159
1.805                  0.9469547        178.8751
1.8075                 0.9463323        178.4327
1.81                   0.9457035        177.9889
1.8125                  0.945068        177.5434
1.815                  0.9444256        177.0964
1.8175                 0.9437759        176.6477
1.82                   0.9431186        176.1974
1.8225                 0.9424533        175.7455
1.825                  0.9417799        175.2919
1.8275                 0.9410979        174.8366
1.83                   0.9404069        174.3796
1.8325                 0.9397068        173.9209
1.835                  0.9389969        173.4605
1.8375                  0.938277        172.9983
1.84                   0.9375468        172.5344
1.8425                 0.9368057        172.0686
1.845                  0.9360535        171.6011
1.8475                 0.9352897        171.1318
1.85                   0.9345139        170.6607
1.8525                 0.9337258        170.1877
1.855                  0.9329249        169.7129
1.8575                 0.9321107        169.2362
1.86                   0.9312828        168.7576
1.8625                 0.9304408        168.2772
1.865                  0.9295844        167.7949
1.8675                  0.928713        167.3106
1.87                    0.927826        166.8245
1.8725                 0.9269232        166.3364
1.875                  0.9260043        165.8464
1.8775                 0.9250683        165.3545
1.88                   0.9241152        164.8606
1.8825                 0.9231443        164.3647
1.885                  0.9221554        163.8669
1.8875                 0.9211476        163.3671
1.89                    0.920121        162.8653
1.8925                 0.9190745        162.3616
1.895                  0.9180082        161.8559
1.8975                 0.9169213        161.3481
1.9                    0.9158133        160.8384
1.9025                  0.914684        160.3267
1.905                  0.9135325        159.8129
1.9075                 0.9123589        159.2972
1.91                   0.9111623        158.7795
1.9125                 0.9099423        158.2597
1.915                  0.9086984         157.738
1.9175                 0.9074304        157.2143
1.92                   0.9061376        156.6885
1.9225                 0.9048195        156.1608
1.925                  0.9034759         155.631
1.9275                 0.9021061        155.0993
1.93                   0.9007098        154.5655
1.9325                 0.8992864        154.0298
1.935                  0.8978356         153.492
1.9375                  0.896357        152.9523
1.94                     0.89485        152.4106
1.9425                 0.8933143        151.8669
1.945                  0.8917494        151.3213
1.9475                 0.8901548        150.7737
1.95                   0.8885304        150.2241
1.9525                 0.8868755        149.6726
1.955                  0.8851898        149.1191
1.9575                 0.8834728        148.5637
1.96                   0.8817244        148.0064
1.9625                  0.879944        147.4472
1.965                   0.878131        146.8861
1.9675                 0.8762856         146.323
1.97                   0.8744072        145.7582
1.9725                 0.8724953        145.1914
1.975                  0.8705496        144.6227
1.9775                 0.8685698        144.0522
1.98                   0.8665556        143.4799
1.9825                 0.8645068        142.9058
1.985                  0.8624228        142.3298
1.9875                 0.8603037        141.7521
1.99                   0.8581487        141.1725
1.9925                 0.8559581        140.5913
1.995                  0.8537313        140.0082
1.9975                 0.8514679        139.4234
2                      0.8491679        138.8369
2.0025                 0.8468311        138.2487
2.005                   0.844457        137.6588
2.0075                 0.8420455        137.0672
2.01                   0.8395965         136.474
2.0125                 0.8371098        135.8791
2.015                   0.834585        135.2826
2.0175                 0.8320223        134.6846
2.02                    0.829421        134.0849
2.0225                 0.8267814        133.4837
2.025                  0.8241032         132.881
2.0275                 0.8213862        132.2767
2.03                   0.8186302        131.6709
2.0325                 0.8158354        131.0636
2.035                  0.8130013        130.4549
2.0375                 0.8101282        129.8448
2.04                   0.8072157        129.2332
2.0425                  0.804264        128.6202
2.045                  0.8012729        128.0058
2.0475                 0.7982423        127.3901
2.05                   0.7951722        126.7731
2.0525                 0.7920627        126.1548
2.055                  0.7889135        125.5352
2.0575                  0.785725        124.9143
2.06                    0.782497        124.2922
2.0625                 0.7792296        123.6689
2.065                  0.7759226        123.0445
2.0675                 0.7725764        122.4188
2.07                   0.7691907        121.7921
2.0725                 0.7657657        121.1642
2.075                  0.7623016        120.5353
2.0775                 0.7587984        119.9052
2.08                   0.7552563        119.2742
2.0825                 0.7516751        118.6422
2.085                  0.7480553        118.0092
2.0875                 0.7443969        117.3753
2.09                      0.7407        116.7404
2.0925                 0.7369649        116.1047
2.095                  0.7331915        115.4681
2.0975                 0.7293802        114.8307
2.1                    0.7255312        114.1925
2.1025                 0.7216446        113.5535
2.105                  0.7177206        112.9139
2.1075                 0.7137595        112.2735
2.11                   0.7097615        111.6324
2.1125                 0.7057269        110.9907
2.115                  0.7016559        110.3484
2.1175                 0.6975489        109.7055
2.12                   0.6934059        109.0621
2.1225                 0.6892273        108.4181
2.125                  0.6850137        107.7737
2.1275                 0.6807649        107.1289
2.13                   0.6764816        106.4837
2.1325                  0.672164        105.8381
2.135                  0.6678124        105.1922
2.1375                  0.663427        104.5459
2.14                   0.6590085        103.8995
2.1425                 0.6545572        103.2528
2.145                  0.6500733         102.606
2.1475                 0.6455572         101.959
2.15                   0.6410094        101.3119
2.1525                 0.6364303        100.6648
2.155                  0.6318202        100.0177
2.1575                 0.6271798        99.37057
2.16                   0.6225091        98.72355
2.1625                 0.6178088        98.07665
2.165                  0.6130794        97.42991
2.1675                 0.6083211        96.78338
2.17                   0.6035347        96.13713
2.1725                 0.5987203        95.49118
2.175                  0.5938788        94.84557
2.1775                 0.5890102        94.20038
2.18                   0.5841154        93.55565
2.1825                 0.5791948        92.91143
2.185                  0.5742488        92.26776
2.1875                 0.5692779        91.62473
2.19                   0.5642827        90.98235
2.1925                 0.5592638        90.34071
2.195                  0.5542217        89.69986
2.1975                 0.5491568        89.05987
2.2                    0.5440699        88.42078
2.2025                 0.5389614        87.78268
2.205                  0.5338317         87.1456
2.2075                 0.5286816        86.50966
2.21                   0.5235117        85.87487
2.2125                 0.5183225        85.24134
2.215                  0.5131146        84.60911
2.2175                 0.5078885         83.9783
2.22                   0.5026449        83.34896
2.2225                 0.4973844        82.72115
2.225                  0.4921076          82.095
2.2275                  0.486815        81.47056
2.23                   0.4815075        80.84792
2.2325                 0.4761854        80.22718
2.235                  0.4708496        79.60843
2.2375                 0.4655005        78.99177
2.24                   0.4601389         78.3773
2.2425                 0.4547655        77.76511
2.245                  0.4493808        77.15533
2.2475                 0.4439855        76.54804
2.25                   0.4385803        75.94341
2.2525                 0.4331657         75.3415
2.255                  0.4277426        74.74247
2.2575                 0.4223116        74.14644
2.26                   0.4168733        73.55355
2.2625                 0.4114284        72.96393
2.265                  0.4059776        72.37775
2.2675                 0.4005218        71.79513
2.27                   0.3950613        71.21626
2.2725                 0.3895971        70.64129
2.275                  0.3841298        70.07041
2.2775                 0.3786602         69.5038
2.28                   0.3731888        68.94164
2.2825                 0.3677166        68.38413
2.285                  0.3622441        67.83152
2.2875                 0.3567722        67.28398
2.29                   0.3513015        66.74176
2.2925                 0.3458329        66.20513
2.295                   0.340367        65.67432
2.2975                 0.3349047         65.1496
2.3                    0.3294467        64.63129
2.3025                 0.3239938        64.11966
2.305                  0.3185467        63.61505
2.3075                 0.3131063        63.11779
2.31                   0.3076733        62.62823
2.3125                 0.3022487        62.14677
2.315                  0.2968331         61.6738
2.3175                 0.2914275        61.20974
2.32                   0.2860327        60.75508
2.3225                 0.2806496        60.31026
2.325                   0.275279        59.87582
2.3275                 0.2699219        59.45232
2.33                   0.2645791        59.04032
2.3325                 0.2592518        58.64046
2.335                  0.2539407        58.25341
2.3375                  0.248647        57.87988
2.34                   0.2433716        57.52066
2.3425                 0.2381155        57.17656
2.345                    0.23288        56.84848
2.3475                  0.227666        56.53735
2.35                   0.2224749        56.24422
2.3525                 0.2173077        55.97021
2.355                  0.2121659        55.71648
2.3575                 0.2070507        55.48437
2.36                   0.2019636        55.27524
2.3625                  0.196906        55.09062
2.365                  0.1918794        54.93217
2.3675                 0.1868856        54.80167
2.37                   0.1819262        54.70105
2.3725                 0.1770033        54.63245
2.375                  0.1721187        54.59813
2.3775                 0.1672746        54.60065
2.38                   0.1624734         54.6427
2.3825                 0.1577175        54.72729
2.385                  0.1530096        54.85769
2.3875                 0.1483527        55.03748
2.39                   0.1437499        55.27052
2.3925                 0.1392049         55.5611
2.395                  0.1347214        55.91385
2.3975                 0.1303037        56.33387
2.4                    0.1259564        56.82666
2.4025                 0.1216846        57.39824
2.405                  0.1174941        58.05514
2.4075                  0.113391        58.80434
2.41                   0.1093824         59.6534
2.4125                  0.105476        60.61034
2.415                  0.1016803        61.68359
2.4175                0.09800477        62.88195
2.42                  0.09445982        64.21444
2.4225                0.09105691        65.69001
2.425                 0.08780854        67.31729
2.4275                0.08472824         69.1042
2.43                   0.0818306        71.05746
2.4325                0.07913103        73.18182
2.435                 0.07664565         75.4795
2.4375                0.07439086        77.94924
2.44                  0.07238302        80.58553
2.4425                0.07063777        83.37788
2.445                 0.06916943        86.31032
2.4475                0.06799024        89.36123
2.45                  0.06710964        92.50365
2.4525                0.06653358        95.70618
2.455                 0.06626405        98.93432
2.4575                0.06629885        102.1523
2.46                  0.06663152         105.325
2.4625                0.06725174        108.4197
2.465                 0.06814578        111.4078
2.4675                 0.0692973        114.2658
2.47                  0.07068806        116.9758
2.4725                0.07229873        119.5255
2.475                 0.07410958        121.9075
2.4775                0.07610109        124.1195
2.48                  0.07825438        126.1624
2.4825                0.08055155        128.0402
2.485                 0.08297587         129.759
2.4875                0.08551192        131.3264
2.49                  0.08814561        132.7509
2.4925                0.09086417        134.0412
2.495                 0.09365604        135.2065
2.4975                0.09651087        136.2556
2.5                   0.09941939        137.1971
2.5025                 0.1023733        138.0391
2.505                  0.1053652        138.7893
2.5075                 0.1083885         139.455
2.51                   0.1114373        140.0429
2.5125                 0.1145064         140.559
2.515                  0.1175911        141.0091
2.5175                 0.1206873        141.3984
2.52                   0.1237912        141.7318
2.5225                 0.1268994        142.0134
2.525                  0.1300091        142.2475
2.5275                 0.1331176        142.4376
2.53                   0.1362224        142.5871
2.5325                 0.1393215        142.6991
2.535                  0.1424129        142.7764
2.5375                 0.1454949        142.8215
2.54                    0.148566        142.8369
2.5425                 0.1516248        142.8247
2.545                  0.1546701        142.7869
2.5475                 0.1577007        142.7252
2.55                   0.1607157        142.6415
2.5525                 0.1637142        142.5372
2.555                  0.1666953        142.4138
2.5575                 0.1696585        142.2726
2.56                    0.172603        142.1147
2.5625                 0.1755283        141.9414
2.565                  0.1784339        141.7537
2.5675                 0.1813194        141.5524
2.57                   0.1841843        141.3386
2.5725                 0.1870285        141.1131
2.575                  0.1898516        140.8765
2.5775                 0.1926533        140.6297
2.58                   0.1954335        140.3734
2.5825                  0.198192         140.108
2.585                  0.2009287        139.8343
2.5875                 0.2036435        139.5527
2.59                   0.2063363        139.2637
2.5925                 0.2090071         138.968
2.595                  0.2116559        138.6657
2.5975                 0.2142826        138.3575
2.6                    0.2168874        138.0436
2.6025                 0.2194702        137.7245
2.605                  0.2220312        137.4005
2.6075                 0.2245704        137.0719
2.61                   0.2270879        136.7389
2.6125                 0.2295839         136.402
2.615                  0.2320586        136.0613
2.6175                  0.234512         135.717
2.62                   0.2369442        135.3696
2.6225                 0.2393556         135.019
2.625                  0.2417463        134.6657
2.6275                 0.2441164        134.3096
2.63                   0.2464662        133.9512
2.6325                  0.248796        133.5904
2.635                  0.2511058        133.2275
2.6375                 0.2533959        132.8626
2.64                   0.2556668        132.4959
2.6425                 0.2579184        132.1275
2.645                   0.260151        131.7575
2.6475                 0.2623651         131.386
2.65                   0.2645607        131.0133
2.6525                 0.2667382        130.6392
2.655                  0.2688978        130.2641
2.6575                 0.2710399        129.8879
2.66                   0.2731646        129.5107
2.6625                 0.2752722        129.1326
2.665                  0.2773631        128.7538
2.6675                 0.2794375        128.3742
2.67                   0.2814957         127.994
2.6725                  0.283538        127.6131
2.675                  0.2855646        127.2317
2.6775                 0.2875759        126.8498
2.68                   0.2895721        126.4675
2.6825                 0.2915535        126.0848
2.685                  0.2935204        125.7017
2.6875                  0.295473        125.3183
2.69                   0.2974116        124.9347
2.6925                 0.2993366        124.5507
2.695                  0.3012482        124.1666
2.6975                 0.3031465        123.7823
2.7                    0.3050321        123.3978
2.7025                  0.306905        123.0132
2.705                  0.3087655        122.6285
2.7075                  0.310614        122.2437
2.71                   0.3124505        121.8588
2.7125                 0.3142755        121.4738
2.715                  0.3160891        121.0887
2.7175                 0.3178916        120.7037
2.72                   0.3196831        120.3185
2.7225                  0.321464        119.9334
2.725                  0.3232345        119.5482
2.7275                 0.3249947         119.163
2.73                   0.3267449        118.7778
2.7325                 0.3284853        118.3925
2.735                   0.330216        118.0073
2.7375                 0.3319373         117.622
2.74                   0.3336494        117.2367
2.7425                 0.3353524        116.8514
2.745                  0.3370465        116.4661
2.7475                 0.3387319        116.0808
2.75                   0.3404087        115.6954
2.7525                 0.3420771          115.31
2.755                  0.3437372        114.9245
2.7575                 0.3453892         114.539
2.76                   0.3470332        114.1535
2.7625                 0.3486692        113.7678
2.765                  0.3502976        113.3822
2.7675                 0.3519182        112.9964
2.77                   0.3535313        112.6105
2.7725                 0.3551369        112.2246
2.775                  0.3567351        111.8386
2.7775                  0.358326        111.4524
2.78                   0.3599098        111.0662
2.7825                 0.3614863        110.6798
2.785                  0.3630557        110.2933
2.7875                 0.3646181        109.9067
2.79                   0.3661734        109.5198
2.7925                 0.3677218        109.1329
2.795                  0.3692633        108.7458
2.7975                 0.3707978        108.3585
2.8                    0.3723254         107.971
2.8025                 0.3738461        107.5834
2.805                  0.3753599        107.1956
2.8075                 0.3768669        106.8075
2.81                   0.3783669        106.4193
2.8125                   0.37986        106.0309
2.815                  0.3813462        105.6422
2.8175                 0.3828254        105.2534
2.82                   0.3842976        104.8643
2.8225                 0.3857628         104.475
2.825                   0.387221        104.0854
2.8275                  0.388672        103.6957
2.83                   0.3901158        103.3057
2.8325                 0.3915525        102.9154
2.835                  0.3929818         102.525
2.8375                 0.3944038        102.1343
2.84                   0.3958184        101.7434
2.8425                 0.3972255        101.3523
2.845                  0.3986251        100.9609
2.8475                  0.400017        100.5693
2.85                   0.4014012        100.1775
2.8525                 0.4027776        99.78551
2.855                  0.4041461        99.39328
2.8575                 0.4055067        99.00084
2.86                   0.4068591        98.60822
2.8625                 0.4082034        98.21537
2.865                  0.4095395        97.82236
2.8675                 0.4108672        97.42916
2.87                   0.4121865         97.0358
2.8725                 0.4134973        96.64228
2.875                  0.4147994         96.2486
2.8775                 0.4160928        95.85479
2.88                   0.4173774        95.46084
2.8825                 0.4186531        95.06678
2.885                  0.4199197        94.67261
2.8875                 0.4211772        94.27834
2.89                   0.4224256        93.88399
2.8925                 0.4236646        93.48959
2.895                  0.4248942        93.09511
2.8975                 0.4261144        92.70061
2.9                    0.4273249        92.30608
2.9025                 0.4285259        91.91154
2.905                  0.4297171        91.51703
2.9075                 0.4308984        91.12253
2.91                   0.4320698        90.72808
2.9125                 0.4332313        90.33369
2.915                  0.4343827        89.93937
2.9175                  0.435524        89.54516
2.92                   0.4366551        89.15105
2.9225                  0.437776        88.75709
2.925                  0.4388866        88.36327
2.9275                 0.4399868        87.96964
2.93                   0.4410766         87.5762
2.9325                 0.4421559        87.18298
2.935                  0.4432248        86.78998
2.9375                 0.4442832        86.39724
2.94                   0.4453309        86.00479
2.9425                 0.4463682        85.61262
2.945                  0.4473947        85.22077
2.9475                 0.4484108        84.82928
2.95                   0.4494162        84.43814
2.9525                 0.4504109        84.04739
2.955                  0.4513951        83.65704
2.9575                 0.4523686        83.26712
2.96                   0.4533315        82.87763
2.9625                 0.4542839        82.48864
2.965                  0.4552257        82.10011
2.9675                  0.456157        81.71213
2.97                   0.4570778        81.32467
2.9725                 0.4579882        80.93775
2.975                  0.4588883        80.55142
2.9775                  0.459778        80.16569
2.98                   0.4606575        79.78058
2.9825                 0.4615267         79.3961
2.985                  0.4623859        79.01229
2.9875                 0.4632351        78.62915
2.99                   0.4640744        78.24671
2.9925                 0.4649038          77.865
2.995                  0.4657235        77.48402
2.9975                 0.4665336         77.1038
3                      0.4673342        76.72434
3.0025                 0.4681254        76.34571
3.005                  0.4689074        75.96786
3.0075                 0.4696803        75.59083
3.01                   0.4704442        75.21465
3.0125                 0.4711993        74.83933
3.015                  0.4719458        74.46489
3.0175                 0.4726837        74.09133
3.02                   0.4734133        73.71868
3.0225                 0.4741347        73.34694
3.025                  0.4748481        72.97613
3.0275                 0.4755538        72.60626
3.03                   0.4762518        72.23735
3.0325                 0.4769423         71.8694
3.035                  0.4776256        71.50242
3.0375                 0.4783018        71.13643
3.04                   0.4789712        70.77142
3.0425                  0.479634        70.40742
3.045                  0.4802903        70.04442
3.0475                 0.4809404        69.68242
3.05                   0.4815845        69.32146
3.0525                 0.4822229        68.96151
3.055                  0.4828556        68.60259
3.0575                 0.4834832        68.24469
3.06                   0.4841055        67.88782
3.0625                 0.4847231        67.53198
3.065                  0.4853359        67.17719
3.0675                 0.4859443        66.82341
3.07                   0.4865486        66.47066
3.0725                  0.487149        66.11895
3.075                  0.4877457        65.76823
3.0775                 0.4883389        65.41855
3.08                   0.4889288        65.06988
3.0825                 0.4895158        64.72223
3.085                     0.4901        64.37555
3.0875                 0.4906818        64.02986
3.09                   0.4912611        63.68518
3.0925                 0.4918385        63.34145
3.095                  0.4924141        62.99868
3.0975                  0.492988        62.65686
3.1                    0.4935605        62.31598
3.1025                 0.4941319          61.976
3.105                  0.4947023        61.63695
3.1075                 0.4952721        61.29877
3.11                   0.4958413        60.96148
3.1125                 0.4964101        60.62504
3.115                  0.4969789        60.28945
3.1175                 0.4975477        59.95467
3.12                   0.4981168        59.62069
3.1225                 0.4986863        59.28749
3.125                  0.4992565        58.95506
3.1275                 0.4998275        58.62336
3.13                   0.5003995        58.29237
3.1325                 0.5009726        57.96208
3.135                   0.501547        57.63246
3.1375                 0.5021228        57.30347
3.14                   0.5027001        56.97512
3.1425                 0.5032792        56.64736
3.145                  0.5038601        56.32016
3.1475                 0.5044429        55.99352
3.15                   0.5050276        55.66739
3.1525                 0.5056147        55.34174
3.155                  0.5062039        55.01655
3.1575                 0.5067954         54.6918
3.16                   0.5073892        54.36747
3.1625                 0.5079854        54.04351
3.165                  0.5085841         53.7199
3.1675                 0.5091853        53.39661
3.17                   0.5097892        53.07361
3.1725                 0.5103954        52.75088
3.175                  0.5110043         52.4284
3.1775                 0.5116158        52.10611
3.18                   0.5122298        51.78402
3.1825                 0.5128463        51.46207
3.185                  0.5134654        51.14024
3.1875                 0.5140869        50.81852
3.19                   0.5147109        50.49685
3.1925                 0.5153371        50.17525
3.195                  0.5159656        49.85365
3.1975                 0.5165964        49.53205
3.2                    0.5172293         49.2104
3.2025                 0.5178641         48.8887
3.205                  0.5185009         48.5669
3.2075                 0.5191395          48.245
3.21                   0.5197795        47.92296
3.2125                 0.5204213        47.60077
3.215                  0.5210642         47.2784
3.2175                 0.5217084        46.95582
3.22                   0.5223536        46.63302
3.2225                 0.5229997        46.30999
3.225                  0.5236464        45.98669
3.2275                 0.5242936         45.6631
3.23                   0.5249411        45.33923
3.2325                 0.5255886        45.01504
3.235                  0.5262359        44.69052
3.2375                 0.5268829        44.36565
3.24                   0.5275293        44.04044
3.2425                 0.5281748        43.71484
3.245                  0.5288192        43.38887
3.2475                 0.5294623        43.06251
3.25                   0.5301039        42.73574
3.2525                 0.5307435        42.40857
3.255                   0.531381        42.08097
3.2575                 0.5320163        41.75296
3.26                   0.5326487        41.42452
3.2625                 0.5332784        41.09565
3.265                  0.5339047        40.76634
3.2675                 0.5345276         40.4366
3.27                   0.5351468        40.10641
3.2725                 0.5357619        39.77581
3.275                  0.5363727        39.44476
3.2775                 0.5369787         39.1133
3.28                     0.53758         38.7814
3.2825                 0.5381761        38.44908
3.285                  0.5387666        38.11637
3.2875                 0.5393514        37.78325
3.29                   0.5399303        37.44973
3.2925                 0.5405026        37.11583
3.295                  0.5410685        36.78156
3.2975                 0.5416275        36.44693
3.3                    0.5421793        36.11195
3.3025                 0.5427237        35.77665
3.305                  0.5432603        35.44104
3.3075                 0.5437891        35.10514
3.31                   0.5443097        34.76896
3.3125                 0.5448218         34.4325
3.315                  0.5453252        34.09583
3.3175                 0.5458196        33.75894
3.32                   0.5463049        33.42185
3.3225                 0.5467809         33.0846
3.325                  0.5472472        32.74719
3.3275                 0.5477037        32.40967
3.33                   0.5481502        32.07207
3.3325                 0.5485865        31.73441
3.335                  0.5490125         31.3967
3.3375                  0.549428        31.05896
3.34                   0.5498326        30.72125
3.3425                 0.5502265        30.38362
3.345                  0.5506094        30.04605
3.3475                 0.5509812        29.70858
3.35                   0.5513417        29.37128
3.3525                  0.551691        29.03414
3.355                  0.5520288        28.69725
3.3575                 0.5523551        28.36057
3.36                   0.5526698        28.02416
3.3625                 0.5529731        27.68808
3.365                  0.5532646        27.35234
3.3675                 0.5535444          27.017
3.37                   0.5538126        26.68206
3.3725                 0.5540691        26.34759
3.375                   0.554314         26.0136
3.3775                 0.5545472        25.68014
3.38                   0.5547689        25.34724
3.3825                 0.5549791        25.01495
3.385                  0.5551778        24.68329
3.3875                 0.5553653         24.3523
3.39                   0.5555414        24.02201
3.3925                 0.5557065        23.69247
3.395                  0.5558605        23.36371
3.3975                 0.5560039        23.03576
3.4                    0.5561365        22.70866
3.4025                 0.5562587        22.38243
3.405                  0.5563706        22.05713
3.4075                 0.5564726        21.73277
3.41                   0.5565647         21.4094
3.4125                 0.5566473        21.08703
3.415                  0.5567204        20.76571
3.4175                 0.5567846        20.44547
3.42                     0.55684        20.12633
3.4225                 0.5568871        19.80832
3.425                   0.556926        19.49148
3.4275                 0.5569572        19.17582
3.43                   0.5569808        18.86138
3.4325                 0.5569975        18.54817
3.435                  0.5570074        18.23622
3.4375                 0.5570109        17.92556
3.44                   0.5570086        17.61619
3.4425                 0.5570008        17.30815
3.445                  0.5569878        17.00145
3.4475                 0.5569701         16.6961
3.45                   0.5569483        16.39212
3.4525                 0.5569226        16.08953
3.455                  0.5568937        15.78832
3.4575                 0.5568619        15.48852
3.46                   0.5568277        15.19014
3.4625                 0.5567916        14.89316
3.465                   0.556754        14.59761
3.4675                 0.5567156        14.30348
3.47                   0.5566768        14.01076
3.4725                  0.556638        13.71947
3.475                  0.5565998        13.42959
3.4775                 0.5565628        13.14112
3.48                   0.5565273        12.85404
3.4825                  0.556494        12.56836
3.485                  0.5564632        12.28405
3.4875                 0.5564358        12.00109
3.49                   0.5564119        11.71948
3.4925                 0.5563922        11.43919
3.495                  0.5563772         11.1602
3.4975                 0.5563673        10.88248
3.5                    0.5563632        10.60601
