! TOUCHSTONE file generated by CST MICROWAVE STUDIO
! Date and time: Wed Oct  7 18:02:38 2026
! Project name: antenna.cst
! Parameters = {substrate_tand=0.02; substrate_er=4.4; gap_mm=5; feed_start_x=24.3; series_c_pf=1.8; omit_soldermask=1; coax_pigtail=1; feed_contact_inside=1; explicit_via_pads=1; feed_x=24.85; copper_edge_clearance=0.3; housing_air=0.25; housing_wall=1; shield_extension=0; via_plating_t=0.025; via_drill_r=0.15; via_outer_r=0.35; radiator_y=2; feed_y=1.1; feed_w=1.5; feed_offset=6; short_offset=9; ground_l=28; tail_l=23.6; segment_l=23.6; meander_count=1; trace_gap=0.5; trace_w=0.7; copper_t=0.035; substrate_h=0.8; board_w=6; board_l=50}
! Header version: 2024
! Port assignment regex: !\s*Touchstone port\s*([0-9]+)\s*=\s*(CST MWS port|CST DES external port|CST DES block port)\s*(.+)\s* \(\"(.*)\"\)(\s*mode\s*([0-9]+))?.*
! Touchstone port assignment:
! Touchstone port 1 = CST MWS port 1 ("50 ohm edge launch reference")
# GHz S MA R 50
1                      0.9863591       -80.68908
1.0025                 0.9861969       -80.89852
1.005                  0.9860541       -81.10812
1.0075                 0.9859308       -81.31792
1.01                   0.9858268       -81.52795
1.0125                 0.9857419       -81.73828
1.015                  0.9856759       -81.94895
1.0175                 0.9856286       -82.16003
1.02                   0.9855999       -82.37153
1.0225                 0.9855894       -82.58351
1.025                  0.9855969       -82.79603
1.0275                 0.9856219        -83.0091
1.03                   0.9856644        -83.2228
1.0325                 0.9857237       -83.43716
1.035                  0.9857994       -83.65218
1.0375                  0.985891       -83.86796
1.04                   0.9859985        -84.0845
1.0425                  0.986121       -84.30184
1.045                  0.9862584       -84.52002
1.0475                 0.9864098       -84.73905
1.05                   0.9865748       -84.95898
1.0525                 0.9867528       -85.17987
1.055                  0.9869436       -85.40166
1.0575                 0.9871463       -85.62446
1.06                   0.9873603        -85.8483
1.0625                 0.9875852       -86.07312
1.065                  0.9878203       -86.29901
1.0675                  0.988065       -86.52596
1.07                   0.9883188       -86.75401
1.0725                 0.9885809       -86.98318
1.075                  0.9888506       -87.21344
1.0775                 0.9891276       -87.44484
1.08                    0.989411        -87.6774
1.0825                 0.9897004        -87.9111
1.085                  0.9899948       -88.14592
1.0875                 0.9902938       -88.38195
1.09                   0.9905969       -88.61917
1.0925                 0.9909032       -88.85755
1.095                  0.9912122       -89.09707
1.0975                 0.9915233       -89.33782
1.1                    0.9918359       -89.57971
1.1025                 0.9921493       -89.82281
1.105                  0.9924628       -90.06704
1.1075                 0.9927761       -90.31246
1.11                   0.9930886       -90.55905
1.1125                 0.9933993       -90.80674
1.115                  0.9937082       -91.05564
1.1175                 0.9940144       -91.30565
1.12                   0.9943174       -91.55678
1.1225                 0.9946168       -91.80901
1.125                   0.994912       -92.06235
1.1275                 0.9952026       -92.31676
1.13                   0.9954879       -92.57224
1.1325                 0.9957677       -92.82875
1.135                  0.9960414       -93.08633
1.1375                 0.9963087        -93.3449
1.14                    0.996569       -93.60447
1.1425                 0.9968219       -93.86506
1.145                  0.9970672       -94.12654
1.1475                 0.9973046       -94.38899
1.15                   0.9975333       -94.65233
1.1525                 0.9977536       -94.91658
1.155                  0.9979647        -95.1817
1.1575                 0.9981665       -95.44769
1.16                   0.9983588       -95.71448
1.1625                 0.9985412       -95.98206
1.165                  0.9987136       -96.25043
1.1675                 0.9988758       -96.51951
1.17                   0.9990275       -96.78936
1.1725                 0.9991687       -97.05989
1.175                   0.999299       -97.33111
1.1775                 0.9994185         -97.603
1.18                   0.9995271       -97.87547
1.1825                 0.9996243       -98.14857
1.185                  0.9997106       -98.42227
1.1875                 0.9997856       -98.69649
1.19                   0.9998494       -98.97125
1.1925                  0.999902       -99.24651
1.195                  0.9999433       -99.52223
1.1975                 0.9999733       -99.79845
1.2                    0.9999922       -100.0751
1.2025                         1       -100.3521
1.205                  0.9999966       -100.6295
1.2075                 0.9999822       -100.9073
1.21                   0.9999571       -101.1854
1.2125                 0.9999212       -101.4638
1.215                  0.9998748       -101.7425
1.2175                 0.9998177       -102.0215
1.22                   0.9997506       -102.3008
1.2225                 0.9996732       -102.5802
1.225                   0.999586       -102.8599
1.2275                 0.9994891       -103.1398
1.23                   0.9993827       -103.4199
1.2325                 0.9992672       -103.7001
1.235                  0.9991426       -103.9804
1.2375                 0.9990094       -104.2609
1.24                   0.9988677       -104.5415
1.2425                 0.9987178       -104.8222
1.245                  0.9985599        -105.103
1.2475                 0.9983946       -105.3838
1.25                    0.998222       -105.6647
1.2525                 0.9980425       -105.9456
1.255                  0.9978563       -106.2266
1.2575                 0.9976638       -106.5076
1.26                   0.9974653       -106.7886
1.2625                 0.9972612       -107.0696
1.265                  0.9970518       -107.3506
1.2675                 0.9968374       -107.6316
1.27                   0.9966186       -107.9126
1.2725                 0.9963954       -108.1935
1.275                  0.9961684       -108.4745
1.2775                 0.9959378       -108.7554
1.28                   0.9957042       -109.0362
1.2825                 0.9954676       -109.3171
1.285                  0.9952288       -109.5979
1.2875                 0.9949878       -109.8787
1.29                    0.994745       -110.1594
1.2925                  0.994501       -110.4402
1.295                  0.9942559       -110.7209
1.2975                 0.9940103       -111.0015
1.3                    0.9937642       -111.2822
1.3025                 0.9935183       -111.5628
1.305                  0.9932727       -111.8435
1.3075                 0.9930278       -112.1241
1.31                   0.9927839       -112.4048
1.3125                 0.9925415       -112.6854
1.315                  0.9923008       -112.9661
1.3175                  0.992062       -113.2468
1.32                   0.9918256       -113.5276
1.3225                 0.9915917       -113.8084
1.325                  0.9913608       -114.0894
1.3275                 0.9911329       -114.3703
1.33                   0.9909086       -114.6514
1.3325                 0.9906879       -114.9326
1.335                  0.9904712       -115.2139
1.3375                 0.9902585       -115.4954
1.34                   0.9900503        -115.777
1.3425                 0.9898467       -116.0587
1.345                  0.9896481       -116.3407
1.3475                 0.9894544       -116.6229
1.35                   0.9892658       -116.9052
1.3525                 0.9890826       -117.1879
1.355                  0.9889051       -117.4707
1.3575                 0.9887331       -117.7539
1.36                   0.9885672       -118.0373
1.3625                  0.988407       -118.3211
1.365                  0.9882529       -118.6052
1.3675                 0.9881049       -118.8896
1.37                   0.9879634       -119.1744
1.3725                  0.987828       -119.4596
1.375                  0.9876991       -119.7452
1.3775                 0.9875765       -120.0313
1.38                   0.9874606       -120.3178
1.3825                  0.987351       -120.6048
1.385                  0.9872481       -120.8922
1.3875                 0.9871514       -121.1802
1.39                   0.9870615       -121.4687
1.3925                  0.986978       -121.7577
1.395                  0.9869009       -122.0474
1.3975                   0.98683       -122.3376
1.4                    0.9867657       -122.6284
1.4025                 0.9867075       -122.9199
1.405                  0.9866553       -123.2119
1.4075                 0.9866094       -123.5047
1.41                   0.9865694       -123.7982
1.4125                 0.9865353       -124.0923
1.415                  0.9865069       -124.3872
1.4175                  0.986484       -124.6828
1.42                   0.9864667       -124.9792
1.4225                 0.9864544       -125.2764
1.425                  0.9864474       -125.5743
1.4275                 0.9864453       -125.8731
1.43                   0.9864481       -126.1727
1.4325                 0.9864554       -126.4731
1.435                  0.9864668       -126.7744
1.4375                 0.9864828       -127.0765
1.44                   0.9865023       -127.3796
1.4425                 0.9865258       -127.6835
1.445                  0.9865528       -127.9883
1.4475                 0.9865829       -128.2941
1.45                   0.9866163       -128.6008
1.4525                 0.9866523       -128.9084
1.455                  0.9866909        -129.217
1.4575                 0.9867316       -129.5265
1.46                   0.9867746       -129.8371
1.4625                 0.9868191       -130.1486
1.465                  0.9868654       -130.4611
1.4675                 0.9869128       -130.7746
1.47                   0.9869612       -131.0891
1.4725                 0.9870103       -131.4047
1.475                  0.9870598       -131.7212
1.4775                 0.9871094       -132.0388
1.48                   0.9871591       -132.3574
1.4825                 0.9872082        -132.677
1.485                  0.9872569       -132.9977
1.4875                 0.9873044       -133.3194
1.49                    0.987351       -133.6422
1.4925                 0.9873959        -133.966
1.495                  0.9874392       -134.2909
1.4975                 0.9874806       -134.6168
1.5                    0.9875196       -134.9438
1.5025                 0.9875559       -135.2718
1.505                  0.9875897       -135.6009
1.5075                 0.9876202        -135.931
1.51                   0.9876478       -136.2622
1.5125                 0.9876715       -136.5944
1.515                  0.9876917       -136.9277
1.5175                 0.9877077        -137.262
1.52                   0.9877196       -137.5974
1.5225                 0.9877271       -137.9338
1.525                  0.9877297       -138.2712
1.5275                 0.9877274       -138.6097
1.53                     0.98772       -138.9491
1.5325                 0.9877074       -139.2896
1.535                  0.9876895       -139.6311
1.5375                 0.9876655       -139.9737
1.54                   0.9876358       -140.3172
1.5425                    0.9876       -140.6617
1.545                  0.9875579       -141.0072
1.5475                 0.9875094       -141.3537
1.55                   0.9874544       -141.7012
1.5525                 0.9873926       -142.0496
1.555                  0.9873242        -142.399
1.5575                 0.9872485       -142.7493
1.56                   0.9871659       -143.1006
1.5625                 0.9870761       -143.4529
1.565                   0.986979        -143.806
1.5675                 0.9868742       -144.1601
1.57                    0.986762       -144.5151
1.5725                 0.9866425        -144.871
1.575                  0.9865149       -145.2278
1.5775                 0.9863798       -145.5855
1.58                   0.9862368        -145.944
1.5825                 0.9860859       -146.3035
1.585                  0.9859272       -146.6638
1.5875                 0.9857606        -147.025
1.59                   0.9855858        -147.387
1.5925                 0.9854032       -147.7498
1.595                  0.9852125       -148.1135
1.5975                 0.9850139        -148.478
1.6                    0.9848071       -148.8434
1.6025                 0.9845925       -149.2095
1.605                  0.9843697       -149.5765
1.6075                 0.9841391       -149.9442
1.61                   0.9839005       -150.3128
1.6125                 0.9836541       -150.6821
1.615                  0.9833998       -151.0522
1.6175                 0.9831377       -151.4231
1.62                   0.9828679       -151.7947
1.6225                 0.9825902       -152.1671
1.625                  0.9823051       -152.5403
1.6275                 0.9820124       -152.9142
1.63                   0.9817123       -153.2888
1.6325                 0.9814047       -153.6642
1.635                    0.98109       -154.0404
1.6375                 0.9807678       -154.4173
1.64                   0.9804389       -154.7949
1.6425                 0.9801027       -155.1732
1.645                  0.9797596       -155.5523
1.6475                   0.97941       -155.9321
1.65                   0.9790535       -156.3126
1.6525                 0.9786906       -156.6938
1.655                  0.9783211       -157.0758
1.6575                 0.9779453       -157.4585
1.66                   0.9775634       -157.8419
1.6625                 0.9771754        -158.226
1.665                  0.9767814       -158.6109
1.6675                 0.9763817       -158.9965
1.67                   0.9759763       -159.3828
1.6725                 0.9755652       -159.7699
1.675                  0.9751487       -160.1577
1.6775                  0.974727       -160.5462
1.68                   0.9743001       -160.9355
1.6825                 0.9738681       -161.3255
1.685                  0.9734312       -161.7163
1.6875                 0.9729894       -162.1079
1.69                    0.972543       -162.5002
1.6925                  0.972092       -162.8933
1.695                  0.9716366       -163.2872
1.6975                 0.9711768       -163.6818
1.7                    0.9707128       -164.0773
1.7025                 0.9702448       -164.4736
1.705                  0.9697727       -164.8707
1.7075                 0.9692966       -165.2686
1.71                   0.9688168       -165.6673
1.7125                 0.9683332       -166.0669
1.715                   0.967846       -166.4674
1.7175                 0.9673552       -166.8687
1.72                    0.966861       -167.2709
1.7225                 0.9663633        -167.674
1.725                  0.9658623        -168.078
1.7275                  0.965358       -168.4829
1.73                   0.9648503       -168.8887
1.7325                 0.9643396       -169.2955
1.735                  0.9638257       -169.7033
1.7375                 0.9633087        -170.112
1.74                   0.9627886       -170.5217
1.7425                 0.9622653       -170.9325
1.745                   0.961739       -171.3442
1.7475                 0.9612095        -171.757
1.75                   0.9606772       -172.1708
1.7525                 0.9601414       -172.5858
1.755                  0.9596028       -173.0018
1.7575                 0.9590608       -173.4189
1.76                   0.9585156       -173.8371
1.7625                 0.9579672       -174.2565
1.765                  0.9574154        -174.677
1.7675                 0.9568603       -175.0987
1.77                   0.9563015       -175.5216
1.7725                 0.9557393       -175.9457
1.775                  0.9551734        -176.371
1.7775                 0.9546037       -176.7976
1.78                   0.9540301       -177.2255
1.7825                 0.9534524       -177.6546
1.785                  0.9528706       -178.0851
1.7875                 0.9522844       -178.5168
1.79                   0.9516938       -178.9499
1.7925                 0.9510985       -179.3844
1.795                  0.9504983       -179.8203
1.7975                 0.9498932        179.7425
1.8                    0.9492828        179.3038
1.8025                  0.948667        178.8637
1.805                  0.9480457        178.4221
1.8075                 0.9474184        177.9791
1.81                    0.946785        177.5345
1.8125                 0.9461453        177.0885
1.815                  0.9454989        176.6409
1.8175                 0.9448458        176.1918
1.82                   0.9441855        175.7411
1.8225                 0.9435179        175.2888
1.825                  0.9428424         174.835
1.8275                  0.942159        174.3795
1.83                   0.9414672        173.9224
1.8325                 0.9407669        173.4636
1.835                  0.9400576        173.0031
1.8375                  0.939339         172.541
1.84                   0.9386109        172.0772
1.8425                 0.9378728        171.6116
1.845                  0.9371242        171.1444
1.8475                 0.9363651        170.6754
1.85                    0.935595        170.2046
1.8525                 0.9348133         169.732
1.855                  0.9340198        169.2577
1.8575                 0.9332143        168.7816
1.86                   0.9323961        168.3036
1.8625                  0.931565        167.8238
1.865                  0.9307204        167.3422
1.8675                 0.9298621        166.8588
1.87                   0.9289896        166.3734
1.8725                 0.9281024        165.8862
1.875                  0.9272003        165.3972
1.8775                 0.9262825        164.9062
1.88                    0.925349        164.4133
1.8825                 0.9243991        163.9185
1.885                  0.9234326        163.4218
1.8875                 0.9224486        162.9232
1.89                   0.9214471        162.4226
1.8925                 0.9204274        161.9201
1.895                  0.9193892        161.4156
1.8975                 0.9183322        160.9092
1.9                    0.9172555        160.4008
1.9025                  0.916159        159.8905
1.905                  0.9150422        159.3782
1.9075                 0.9139046        158.8639
1.91                   0.9127458        158.3476
1.9125                 0.9115651        157.8294
1.915                  0.9103625        157.3092
1.9175                 0.9091372         156.787
1.92                   0.9078889        156.2627
1.9225                 0.9066173        155.7366
1.925                  0.9053214        155.2084
1.9275                 0.9040012        154.6782
1.93                   0.9026563        154.1461
1.9325                 0.9012861        153.6119
1.935                  0.8998902        153.0758
1.9375                 0.8984683        152.5377
1.94                   0.8970196        151.9976
1.9425                  0.895544        151.4555
1.945                  0.8940411        150.9115
1.9475                 0.8925103        150.3654
1.95                   0.8909512        149.8175
1.9525                 0.8893636        149.2675
1.955                  0.8877469        148.7156
1.9575                 0.8861007        148.1618
1.96                   0.8844247         147.606
1.9625                 0.8827184        147.0482
1.965                  0.8809815        146.4886
1.9675                 0.8792137         145.927
1.97                   0.8774144        145.3635
1.9725                 0.8755836        144.7981
1.975                  0.8737204        144.2307
1.9775                 0.8718251        143.6616
1.98                   0.8698969        143.0905
1.9825                 0.8679356        142.5176
1.985                  0.8659409        141.9428
1.9875                 0.8639124        141.3661
1.99                     0.86185        140.7876
1.9925                  0.859753        140.2073
1.995                  0.8576216        139.6252
1.9975                 0.8554551        139.0413
2                      0.8532535        138.4556
2.0025                 0.8510163        137.8681
2.005                  0.8487435        137.2789
2.0075                 0.8464346         136.688
2.01                   0.8440894        136.0953
2.0125                  0.841708        135.5009
2.015                  0.8392897        134.9048
2.0175                 0.8368346         134.307
2.02                   0.8343424        133.7075
2.0225                 0.8318129        133.1064
2.025                   0.829246        132.5037
2.0275                 0.8266413        131.8994
2.03                   0.8239989        131.2934
2.0325                 0.8213185        130.6859
2.035                  0.8186001        130.0768
2.0375                 0.8158434        129.4662
2.04                   0.8130483         128.854
2.0425                 0.8102149        128.2403
2.045                  0.8073428        127.6252
2.0475                 0.8044322        127.0086
2.05                   0.8014828        126.3905
2.0525                 0.7984946         125.771
2.055                  0.7954676        125.1501
2.0575                 0.7924016        124.5278
2.06                   0.7892968        123.9042
2.0625                  0.786153        123.2792
2.065                  0.7829703        122.6529
2.0675                 0.7797486        122.0252
2.07                    0.776488        121.3963
2.0725                 0.7731884        120.7662
2.075                  0.7698499        120.1348
2.0775                 0.7664726        119.5023
2.08                   0.7630564        118.8685
2.0825                 0.7596015        118.2336
2.085                   0.756108        117.5975
2.0875                  0.752576        116.9604
2.09                   0.7490053        116.3221
2.0925                 0.7453965        115.6828
2.095                  0.7417492        115.0425
2.0975                 0.7380639        114.4011
2.1                    0.7343406        113.7588
2.1025                 0.7305795        113.1155
2.105                  0.7267807        112.4713
2.1075                 0.7229443        111.8262
2.11                   0.7190708        111.1802
2.1125                   0.71516        110.5334
2.115                  0.7112125        109.8857
2.1175                 0.7072282        109.2373
2.12                   0.7032074        108.5881
2.1225                 0.6991503        107.9382
2.125                  0.6950573        107.2876
2.1275                 0.6909285        106.6363
2.13                   0.6867643        105.9844
2.1325                 0.6825649        105.3318
2.135                  0.6783305        104.6787
2.1375                 0.6740616        104.0251
2.14                   0.6697583        103.3709
2.1425                 0.6654211        102.7163
2.145                    0.66105        102.0612
2.1475                 0.6566458        101.4057
2.15                   0.6522085        100.7499
2.1525                 0.6477386        100.0937
2.155                  0.6432363        99.43718
2.1575                 0.6387023        98.78042
2.16                   0.6341366        98.12342
2.1625                 0.6295397        97.46624
2.165                   0.624912        96.80888
2.1675                 0.6202541        96.15142
2.17                   0.6155663        95.49389
2.1725                 0.6108489        94.83631
2.175                  0.6061023        94.17876
2.1775                 0.6013272        93.52123
2.18                   0.5965239        92.86381
2.1825                 0.5916926         92.2065
2.185                  0.5868343        91.54939
2.1875                  0.581949        90.89251
2.19                   0.5770374        90.23588
2.1925                 0.5720999        89.57957
2.195                  0.5671371        88.92364
2.1975                 0.5621494         88.2681
2.2                    0.5571372        87.61305
2.2025                 0.5521012        86.95851
2.205                  0.5470417        86.30453
2.2075                 0.5419596        85.65118
2.21                   0.5368551        84.99852
2.2125                 0.5317288        84.34659
2.215                  0.5265812        83.69547
2.2175                 0.5214131        83.04519
2.22                   0.5162247        82.39583
2.2225                 0.5110168        81.74746
2.225                  0.5057898        81.10014
2.2275                 0.5005445        80.45393
2.23                   0.4952813        79.80891
2.2325                 0.4900008        79.16515
2.235                  0.4847036         78.5227
2.2375                 0.4793904        77.88168
2.24                   0.4740616        77.24214
2.2425                 0.4687179        76.60417
2.245                  0.4633599        75.96786
2.2475                 0.4579882        75.33327
2.25                   0.4526035        74.70052
2.2525                 0.4472063         74.0697
2.255                  0.4417972        73.44088
2.2575                  0.436377         72.8142
2.26                   0.4309461        72.18972
2.2625                 0.4255054        71.56761
2.265                  0.4200554        70.94792
2.2675                 0.4145966         70.3308
2.27                   0.4091299        69.71638
2.2725                 0.4036558        69.10477
2.275                  0.3981751         68.4961
2.2775                 0.3926883        67.89053
2.28                   0.3871961        67.28819
2.2825                 0.3816992        66.68924
2.285                  0.3761983        66.09384
2.2875                  0.370694        65.50215
2.29                   0.3651871        64.91435
2.2925                 0.3596782        64.33064
2.295                  0.3541679        63.75119
2.2975                 0.3486571         63.1762
2.3                    0.3431462        62.60592
2.3025                 0.3376363        62.04055
2.305                  0.3321278        61.48032
2.3075                 0.3266216        60.92551
2.31                   0.3211183        60.37638
2.3125                 0.3156186         59.8332
2.315                  0.3101234        59.29628
2.3175                 0.3046332        58.76594
2.32                    0.299149         58.2425
2.3225                 0.2936714        57.72633
2.325                  0.2882012        57.21784
2.3275                 0.2827392        56.71739
2.33                   0.2772862        56.22544
2.3325                  0.271843        55.74245
2.335                  0.2664103        55.26891
2.3375                 0.2609891        54.80536
2.34                     0.25558        54.35238
2.3425                 0.2501841        53.91057
2.345                  0.2448022        53.48058
2.3475                 0.2394352        53.06313
2.35                   0.2340841        52.65899
2.3525                 0.2287496        52.26898
2.355                   0.223433        51.89399
2.3575                 0.2181351          51.535
2.36                   0.2128571        51.19304
2.3625                 0.2075999        50.86926
2.365                  0.2023649        50.56491
2.3675                 0.1971531        50.28135
2.37                   0.1919658        50.02002
2.3725                 0.1868044        49.78258
2.375                  0.1816701        49.57078
2.3775                 0.1765647        49.38657
2.38                   0.1714896        49.23209
2.3825                 0.1664464        49.10969
2.385                  0.1614372        49.02199
2.3875                 0.1564637        48.97184
2.39                   0.1515282        48.96244
2.3925                  0.146633        48.99731
2.395                  0.1417806        49.08039
2.3975                 0.1369739        49.21603
2.4                    0.1322159        49.40911
2.4025                   0.12751        49.66505
2.405                  0.1228602        49.98992
2.4075                 0.1182706        50.39049
2.41                    0.113746        50.87435
2.4125                  0.109292        51.44996
2.415                  0.1049146        52.12677
2.4175                 0.1006207        52.91531
2.42                  0.09641831        53.82728
2.4225                0.09231641        54.87562
2.425                 0.08832529         56.0745
2.4275                 0.0844567        57.43934
2.43                  0.08072405        58.98666
2.4325                0.07714262        60.73375
2.435                 0.07372966        62.69828
2.4375                 0.0705046        64.89738
2.44                  0.06748903        67.34666
2.4425                0.06470657        70.05853
2.445                 0.06218259        73.04018
2.4475                0.05994349        76.29127
2.45                  0.05801574        79.80137
2.4525                0.05642452        83.54774
2.455                 0.05519196        87.49399
2.4575                0.05433533        91.59032
2.46                  0.05386534        95.77554
2.4625                0.05378483        99.98138
2.465                 0.05408823         104.138
2.4675                0.05476194        108.1796
2.47                   0.0557854          112.05
2.4725                0.05713285        115.7052
2.475                 0.05877521        119.1152
2.4775                0.06068193        122.2631
2.48                  0.06282259        125.1434
2.4825                0.06516797        127.7594
2.485                 0.06769086        130.1211
2.4875                0.07036651        132.2425
2.49                  0.07317268          134.14
2.4925                0.07608972        135.8313
2.495                 0.07910029        137.3338
2.4975                0.08218934        138.6646
2.5                    0.0853437        139.8396
2.5025                0.08855195        140.8737
2.505                 0.09180419        141.7806
2.5075                0.09509183        142.5726
2.51                  0.09840739        143.2608
2.5125                 0.1017444        143.8553
2.515                  0.1050972        144.3651
2.5175                 0.1084608        144.7981
2.52                    0.111831        145.1617
2.5225                 0.1152039        145.4622
2.525                  0.1185763        145.7053
2.5275                 0.1219451        145.8963
2.53                   0.1253079        146.0398
2.5325                 0.1286624        146.1399
2.535                  0.1320065        146.2003
2.5375                 0.1353385        146.2245
2.54                   0.1386568        146.2154
2.5425                   0.14196        146.1758
2.545                  0.1452469        146.1081
2.5475                 0.1485163        146.0146
2.55                   0.1517674        145.8974
2.5525                 0.1549992        145.7583
2.555                   0.158211        145.5989
2.5575                 0.1614021        145.4208
2.56                   0.1645719        145.2255
2.5625                   0.16772        145.0142
2.565                  0.1708457        144.7881
2.5675                 0.1739488        144.5483
2.57                   0.1770288        144.2958
2.5725                 0.1800856        144.0314
2.575                  0.1831188        143.7561
2.5775                 0.1861282        143.4706
2.58                   0.1891138        143.1757
2.5825                 0.1920752         142.872
2.585                  0.1950125        142.5602
2.5875                 0.1979256        142.2407
2.59                   0.2008144        141.9142
2.5925                 0.2036788        141.5812
2.595                   0.206519         141.242
2.5975                  0.209335        140.8972
2.6                    0.2121267        140.5472
2.6025                 0.2148942        140.1922
2.605                  0.2176377        139.8327
2.6075                 0.2203572         139.469
2.61                    0.223053        139.1014
2.6125                  0.225725        138.7302
2.615                  0.2283734        138.3556
2.6175                 0.2309984        137.9779
2.62                   0.2336002        137.5973
2.6225                 0.2361791        137.2142
2.625                   0.238735        136.8285
2.6275                 0.2412684        136.4406
2.63                   0.2437793        136.0507
2.6325                 0.2462681        135.6588
2.635                  0.2487348        135.2653
2.6375                 0.2511798        134.8701
2.64                   0.2536034        134.4735
2.6425                 0.2560058        134.0755
2.645                  0.2583872        133.6764
2.6475                  0.260748        133.2762
2.65                   0.2630883        132.8751
2.6525                 0.2654084         132.473
2.655                  0.2677088        132.0702
2.6575                 0.2699895        131.6668
2.66                    0.272251        131.2627
2.6625                 0.2744934        130.8581
2.665                  0.2767172        130.4531
2.6675                 0.2789225        130.0477
2.67                   0.2811097         129.642
2.6725                 0.2832791         129.236
2.675                   0.285431        128.8299
2.6775                 0.2875656        128.4236
2.68                   0.2896833        128.0172
2.6825                 0.2917844        127.6107
2.685                  0.2938692        127.2042
2.6875                 0.2959379        126.7977
2.69                   0.2979909        126.3914
2.6925                 0.3000285         125.985
2.695                  0.3020509        125.5788
2.6975                 0.3040585        125.1727
2.7                    0.3060515        124.7668
2.7025                 0.3080303        124.3611
2.705                   0.309995        123.9555
2.7075                  0.311946        123.5502
2.71                   0.3138836        123.1451
2.7125                  0.315808        122.7402
2.715                  0.3177195        122.3356
2.7175                 0.3196184        121.9312
2.72                   0.3215049        121.5271
2.7225                 0.3233793        121.1233
2.725                  0.3252418        120.7197
2.7275                 0.3270927        120.3164
2.73                   0.3289321        119.9134
2.7325                 0.3307605        119.5106
2.735                  0.3325779        119.1082
2.7375                 0.3343846        118.7059
2.74                   0.3361808         118.304
2.7425                 0.3379667        117.9023
2.745                  0.3397425        117.5008
2.7475                 0.3415085        117.0996
2.75                   0.3432647        116.6987
2.7525                 0.3450114        116.2979
2.755                  0.3467488        115.8974
2.7575                 0.3484771        115.4971
2.76                   0.3501963         115.097
2.7625                 0.3519066        114.6971
2.765                  0.3536083        114.2973
2.7675                 0.3553014        113.8978
2.77                    0.356986        113.4984
2.7725                 0.3586623        113.0991
2.775                  0.3603305        112.6999
2.7775                 0.3619905        112.3009
2.78                   0.3636426        111.9021
2.7825                 0.3652867        111.5033
2.785                   0.366923        111.1045
2.7875                 0.3685516        110.7059
2.79                   0.3701726        110.3073
2.7925                  0.371786        109.9088
2.795                  0.3733917        109.5103
2.7975                 0.3749901        109.1119
2.8                     0.376581        108.7135
2.8025                 0.3781645         108.315
2.805                  0.3797405        107.9166
2.8075                 0.3813093        107.5182
2.81                   0.3828706        107.1197
2.8125                 0.3844247        106.7212
2.815                  0.3859715        106.3227
2.8175                 0.3875108        105.9241
2.82                   0.3890428        105.5255
2.8225                 0.3905675        105.1267
2.825                  0.3920847         104.728
2.8275                 0.3935946        104.3291
2.83                   0.3950969        103.9302
2.8325                 0.3965918        103.5311
2.835                  0.3980792         103.132
2.8375                 0.3995589        102.7328
2.84                    0.401031        102.3335
2.8425                 0.4024954         101.934
2.845                   0.403952        101.5345
2.8475                 0.4054009        101.1349
2.85                   0.4068417        100.7351
2.8525                 0.4082746        100.3352
2.855                  0.4096995        99.93528
2.8575                 0.4111161        99.53521
2.86                   0.4125246        99.13504
2.8625                 0.4139247        98.73475
2.865                  0.4153164        98.33437
2.8675                 0.4166996        97.93388
2.87                   0.4180742        97.53334
2.8725                 0.4194402        97.13268
2.875                  0.4207973        96.73194
2.8775                 0.4221455        96.33114
2.88                   0.4234848        95.93026
2.8825                  0.424815        95.52934
2.885                   0.426136        95.12837
2.8875                 0.4274477        94.72736
2.89                   0.4287499        94.32632
2.8925                 0.4300428        93.92525
2.895                   0.431326        93.52418
2.8975                 0.4325995        93.12311
2.9                    0.4338631        92.72207
2.9025                  0.435117        92.32105
2.905                  0.4363609        91.92009
2.9075                 0.4375947        91.51916
2.91                   0.4388182        91.11831
2.9125                 0.4400316        90.71757
2.915                  0.4412346        90.31691
2.9175                 0.4424272        89.91636
2.92                   0.4436092        89.51598
2.9225                 0.4447807        89.11573
2.925                  0.4459415        88.71564
2.9275                 0.4470916        88.31576
2.93                   0.4482309        87.91607
2.9325                 0.4493593        87.51662
2.935                  0.4504768        87.11741
2.9375                 0.4515834        86.71847
2.94                   0.4526789         86.3198
2.9425                 0.4537633        85.92144
2.945                  0.4548367         85.5234
2.9475                  0.455899        85.12571
2.95                   0.4569501         84.7284
2.9525                 0.4579899        84.33145
2.955                  0.4590186        83.93491
2.9575                 0.4600361         83.5388
2.96                   0.4610423        83.14314
2.9625                 0.4620373        82.74796
2.965                  0.4630212        82.35327
2.9675                 0.4639939        81.95908
2.97                   0.4649553        81.56545
2.9725                 0.4659056        81.17235
2.975                  0.4668448        80.77984
2.9775                 0.4677729        80.38792
2.98                     0.46869        79.99663
2.9825                 0.4695961        79.60597
2.985                  0.4704913          79.216
2.9875                 0.4713756        78.82669
2.99                   0.4722492        78.43809
2.9925                  0.473112        78.05022
2.995                  0.4739643        77.66308
2.9975                 0.4748061        77.27673
3                      0.4756374        76.89114
3.0025                 0.4764584        76.50636
3.005                  0.4772692        76.12241
3.0075                 0.4780699        75.73929
3.01                   0.4788608        75.35705
3.0125                 0.4796418        74.97566
3.015                  0.4804131        74.59518
3.0175                 0.4811749         74.2156
3.02                   0.4819274        73.83695
3.0225                 0.4826706        73.45924
3.025                  0.4834048        73.08249
3.0275                 0.4841301        72.70672
3.03                   0.4848468        72.33192
3.0325                  0.485555        71.95811
3.035                  0.4862548        71.58534
3.0375                 0.4869466        71.21356
3.04                   0.4876303        70.84283
3.0425                 0.4883064        70.47315
3.045                   0.488975        70.10451
3.0475                 0.4896364        69.73692
3.05                   0.4902906        69.37043
3.0525                  0.490938          69.005
3.055                  0.4915788        68.64065
3.0575                 0.4922132         68.2774
3.06                   0.4928414        67.91523
3.0625                 0.4934638        67.55417
3.065                  0.4940804        67.19421
3.0675                 0.4946917        66.83534
3.07                   0.4952977        66.47757
3.0725                 0.4958989        66.12091
3.075                  0.4964953        65.76536
3.0775                 0.4970873         65.4109
3.08                   0.4976751        65.05753
3.0825                  0.498259        64.70526
3.085                  0.4988392        64.35408
3.0875                  0.499416        64.00399
3.09                   0.4999895        63.65497
3.0925                 0.5005602        63.30701
3.095                  0.5011282        62.96012
3.0975                 0.5016938        62.61426
3.1                    0.5022572        62.26946
3.1025                 0.5028187        61.92569
3.105                  0.5033785        61.58292
3.1075                 0.5039368        61.24115
3.11                   0.5044939        60.90038
3.1125                 0.5050501        60.56058
3.115                  0.5056055        60.22173
3.1175                 0.5061604        59.88381
3.12                   0.5067151        59.54683
3.1225                 0.5072697        59.21073
3.125                  0.5078242        58.87553
3.1275                 0.5083793        58.54118
3.13                   0.5089347        58.20767
3.1325                  0.509491        57.87499
3.135                  0.5100482        57.54308
3.1375                 0.5106065        57.21196
3.14                   0.5111661        56.88158
3.1425                  0.511727        56.55191
3.145                  0.5122897        56.22294
3.1475                  0.512854        55.89464
3.15                   0.5134202          55.567
3.1525                 0.5139884        55.23995
3.155                  0.5145589         54.9135
3.1575                 0.5151315         54.5876
3.16                   0.5157065        54.26224
3.1625                 0.5162839        53.93738
3.165                  0.5168639        53.61299
3.1675                 0.5174466        53.28904
3.17                   0.5180318         52.9655
3.1725                 0.5186198        52.64235
3.175                  0.5192107        52.31954
3.1775                 0.5198043        51.99707
3.18                   0.5204008        51.67487
3.1825                     0.521        51.35295
3.185                  0.5216022        51.03125
3.1875                 0.5222072        50.70975
3.19                   0.5228151        50.38842
3.1925                 0.5234256        50.06723
3.195                   0.524039        49.74616
3.1975                 0.5246551        49.42515
3.2                    0.5252737        49.10422
3.2025                 0.5258948        48.78329
3.205                  0.5265185        48.46236
3.2075                 0.5271445        48.14141
3.21                   0.5277728        47.82038
3.2125                 0.5284031        47.49928
3.215                  0.5290355        47.17806
3.2175                 0.5296697         46.8567
3.22                   0.5303057        46.53518
3.2225                 0.5309431        46.21347
3.225                  0.5315819        45.89155
3.2275                  0.532222        45.56941
3.23                    0.532863        45.24699
3.2325                 0.5335048        44.92431
3.235                   0.534147        44.60133
3.2375                 0.5347898        44.27803
3.24                   0.5354327        43.95441
3.2425                 0.5360754        43.63043
3.245                  0.5367179        43.30609
3.2475                 0.5373597        42.98136
3.25                   0.5380007        42.65624
3.2525                 0.5386405        42.33072
3.255                   0.539279        42.00478
3.2575                 0.5399158        41.67841
3.26                   0.5405506        41.35161
3.2625                 0.5411832        41.02436
3.265                  0.5418133        40.69665
3.2675                 0.5424406        40.36849
3.27                   0.5430647        40.03987
3.2725                 0.5436854        39.71079
3.275                  0.5443023        39.38124
3.2775                 0.5449153        39.05122
3.28                   0.5455238        38.72073
3.2825                 0.5461278        38.38978
3.285                  0.5467267        38.05838
3.2875                 0.5473203        37.72653
3.29                   0.5479084        37.39422
3.2925                 0.5484905        37.06146
3.295                  0.5490664        36.72829
3.2975                 0.5496356        36.39468
3.3                    0.5501981        36.06067
3.3025                 0.5507534        35.72626
3.305                  0.5513013        35.39147
3.3075                 0.5518414        35.05632
3.31                   0.5523734        34.72079
3.3125                 0.5528971         34.3849
3.315                  0.5534121        34.04875
3.3175                 0.5539183        33.71227
3.32                   0.5544152        33.37554
3.3225                 0.5549027        33.03854
3.325                  0.5553804        32.70132
3.3275                 0.5558482        32.36388
3.33                   0.5563058        32.02628
3.3325                 0.5567529        31.68851
3.335                  0.5571894        31.35058
3.3375                 0.5576149         31.0126
3.34                   0.5580294        30.67453
3.3425                 0.5584325        30.33644
3.345                  0.5588242        29.99829
3.3475                 0.5592043        29.66022
3.35                   0.5595725        29.32218
3.3525                 0.5599287        28.98422
3.355                  0.5602729         28.6464
3.3575                 0.5606047        28.30875
3.36                   0.5609241        27.97127
3.3625                 0.5612312        27.63404
3.365                  0.5615258        27.29706
3.3675                 0.5618077         26.9604
3.37                   0.5620771        26.62407
3.3725                 0.5623337        26.28812
3.375                  0.5625776        25.95259
3.3775                 0.5628087        25.61752
3.38                   0.5630271        25.28295
3.3825                 0.5632329         24.9489
3.385                   0.563426        24.61544
3.3875                 0.5636064        24.28258
3.39                   0.5637743        23.95039
3.3925                 0.5639298        23.61888
3.395                  0.5640729         23.2881
3.3975                 0.5642038         22.9581
3.4                    0.5643226        22.62891
3.4025                 0.5644295        22.30056
3.405                  0.5645246        21.97311
3.4075                 0.5646081        21.64658
3.41                   0.5646803        21.32101
3.4125                 0.5647414        20.99645
3.415                  0.5647916        20.67292
3.4175                 0.5648311        20.35046
3.42                   0.5648603        20.02911
3.4225                 0.5648793        19.70891
3.425                  0.5648886        19.38988
3.4275                 0.5648886        19.07207
3.43                   0.5648793        18.75549
3.4325                 0.5648615        18.44018
3.435                  0.5648351        18.12618
3.4375                 0.5648008        17.81351
3.44                   0.5647589        17.50219
3.4425                 0.5647099        17.19225
3.445                  0.5646541        16.88372
3.4475                 0.5645921        16.57662
3.45                   0.5645242        16.27097
3.4525                 0.5644509        15.96679
3.455                  0.5643728         15.6641
3.4575                 0.5642902        15.36291
3.46                   0.5642039        15.06324
3.4625                 0.5641141        14.76511
3.465                  0.5640215        14.46851
3.4675                 0.5639267        14.17347
3.47                   0.5638298        13.87998
3.4725                  0.563732        13.58805
3.475                  0.5636333        13.29769
3.4775                 0.5635346        13.00889
3.48                   0.5634365        12.72165
3.4825                 0.5633393        12.43597
3.485                  0.5632437        12.15183
3.4875                 0.5631502        11.86923
3.49                   0.5630596        11.58817
3.4925                 0.5629722        11.30861
3.495                  0.5628888        11.03055
3.4975                 0.5628099        10.75396
3.5                     0.562736        10.47883
